BEGIN IONS
TITLE=Scan Number: 740
PEPMASS=843.27002
CHARGE=1+
COMPOUNDNAME=Albicidin (LTQ-Orbitrap)
LIBRARYQUALITY=3
SMILES=C/C(C(NC1=CC=C(C(NC(CC#N)C(NC2=CC=C(C(NC3=CC=C(C(NC4=CC=C(C(O)=O)C(O)=C4OC)=O)C(O)=C3OC)=O)C=C2)=O)=O)C=C1)=O)=C\C5=CC=C(O)C=C5
INCHIKEY=NZSWNNDHPOTJNH-GHVJWSGMSA-N
INCHI=
MSLEVEL=2
SOURCE_INSTRUMENT=LC-ESI-Ion Trap
FILENAME=f.daniel/Albis/XA_Frac_7.mzXML;
SEQ=*..*
NOTES=
IONMODE=Positive
ORGANISM=GNPS-LIBRARY
NAME=Albicidin (LTQ-Orbitrap) M+H
SPECTRUMID=CCMSLIB00000579285
ACTIVATION=CID
INSTRUMENT=ion trap
SCANS=740
257.0 17.341581 
257.583344 0.000949 
262.0 4.235696 
262.5 0.000341 
263.166656 12.562923 
263.666656 0.000801 
264.166656 9.466925 
264.666656 0.000524 
266.916656 17.713924 
267.5 0.000982 
279.416656 17.167473 
280.083344 277.951874 
280.833344 0.004709 
283.083344 11.470253 
283.666656 0.000801 
285.083344 1372.465332 
286.0 0.006927 
286.583344 1e-06 
294.25 14.441173 
294.833344 0.000903 
297.25 14.37606 
297.833344 0.000851 
303.0 16.735542 
303.5 35.627449 
303.75 41.756283 
304.333344 0.001988 
308.0 17.652475 
308.583344 0.001391 
313.416656 13.225605 
314.0 0.001048 
325.75 9.889303 
326.333344 0.000521 
330.166656 13.961103 
331.083344 1941.144287 
331.916656 0.017061 
332.5 1e-06 
334.5 10.181713 
335.0 127.22438 
335.916656 0.001436 
347.666656 9.590452 
347.916656 27.514149 
348.083344 34.088776 
349.166656 2608.91748 
350.0 0.020167 
350.5 1e-06 
352.083344 6.669796 
352.666656 0.00057 
357.333344 29.056368 
357.916656 0.00196 
363.916656 4.763533 
364.25 63.699253 
364.833344 0.002613 
374.833344 8.902611 
375.083344 10.77551 
375.666656 0.000609 
376.0 43.371239 
376.333344 69.479614 
376.833344 0.004185 
399.083344 28.290497 
399.25 32.646244 
399.833344 0.000652 
409.166687 28.891478 
409.75 0.001473 
422.166687 10.538487 
422.666687 0.001058 
444.75 19.706076 
445.083344 169.881302 
445.416687 77.879372 
446.0 0.003732 
450.333344 37.337952 
451.0 0.002112 
451.5 36.435265 
452.0 0.001832 
453.5 14.26072 
454.083344 0.000754 
467.0 29.757549 
468.25 9687.021484 
469.166687 0.011116 
469.75 1e-06 
478.166687 10.133479 
478.666687 0.00082 
481.666687 17.729771 
482.25 25.207121 
482.75 0.001981 
491.166687 70.518494 
491.5 34.629509 
492.083344 0.002002 
494.166687 13.813197 
494.5 42.232502 
495.166687 2718.836426 
495.916687 17.57023 
496.25 12.747839 
496.416687 14.368983 
497.0 0.000939 
500.25 1698.888672 
501.083344 0.028377 
501.666687 1e-06 
510.083344 30.776388 
510.666687 0.001646 
512.833313 62.826756 
513.083313 59.964355 
513.666687 0.003641 
527.5 22.753613 
528.083313 0.001438 
541.083313 252.087891 
541.916687 0.004563 
545.916687 7.672973 
546.25 19.911436 
546.666687 29.309883 
547.0 18.258522 
547.166687 10.595245 
547.833313 39.720768 
548.333313 0.00308 
567.0 16.933434 
567.583374 22.347494 
568.083374 0.001611 
574.083374 45.594864 
574.583374 0.002377 
610.083374 13.221485 
610.333374 5.324464 
610.833374 0.000418 
627.166687 32.983204 
627.666687 118.320526 
627.916687 139.133087 
628.333374 69.177261 
628.833374 0.003946 
643.0 8.08214 
643.583374 0.000587 
658.666687 14.107831 
660.166687 40091.570312 
661.083374 1.243688 
661.416687 13.727435 
662.0 0.000821 
664.583374 45.482632 
665.333374 1022.613159 
666.083374 0.014534 
666.583374 1e-06 
674.25 8.947599 
674.833374 0.000602 
678.0 63.345547 
678.333374 82.701103 
678.583374 12.229322 
679.083374 32.892673 
679.333374 29.906965 
679.833374 0.001709 
682.0 80.216118 
682.333374 76.294838 
683.166687 3496.556641 
684.083374 24.832436 
684.583374 0.001461 
692.333374 10.723773 
692.833374 0.000738 
695.166687 7.221092 
695.666687 0.000408 
696.75 28.57449 
697.25 0.001956 
704.25 18.590591 
704.75 0.001501 
705.166687 13.370434 
705.916687 161.822815 
706.166687 133.112244 
707.0 0.00142 
798.583374 41.606941 
799.083374 39.672447 
799.333374 38.600685 
799.916687 0.002042 
807.833374 13.432159 
808.333374 0.001071 
824.083374 13.340085 
825.166687 1657.983154 
826.333374 23.175854 
826.916687 0.001635 
841.583374 21.118361 
842.166687 0.001717 
1002.666687 18.110565 
1003.166687 42.423225 
1003.75 0.002262 
1341.25 12.135115 
1341.75 0.000929 
1523.25 16.914843 
1523.75 0.001196 
1524.083374 22.726347 
1524.583374 78.115204 
1524.833374 84.030075 
1525.083374 33.738621 
1525.666748 0.001759 
END IONS

