BEGIN IONS
PEPMASS=861.58
CHARGE=1+
MSLEVEL=2
SOURCE_INSTRUMENT=LC-ESI-qTof
FILENAME=f.arihiro1013/purecompounds_mgfdata/201909_kurahyne.mgf;
SEQ=*..*
IONMODE=Positive
ORGANISM=GNPS-LIBRARY
NAME=Kurahyne M+Na
PI=Gerwick
DATACOLLECTOR=Arihiro Iwasaki
SMILES=C#CCCC/C=C(C(N([C@@](C(N([C@@](C(N([C@H](C(N([C@H](C(N1[C@@H](CCC1)C(N2[C@@H](CCC2)C(CC)=O)=O)=O)C(C)C)C)=O)C(C)C)C)=O)([H])[C@@H](C)CC)C)=O)([H])[C@@H](C)CC)C)=O)\C
INCHI=InChI=1S/C47H78N6O7/c1-16-20-21-22-25-34(11)42(55)50(14)40(32(9)17-2)46(59)51(15)41(33(10)18-3)45(58)48(12)38(30(5)6)44(57)49(13)39(31(7)8)47(60)53-29-24-27-36(53)43(56)52-28-23-26-35(52)37(54)19-4/h1,25,30-33,35-36,38-41H,17-24,26-29H2,2-15H3/b34-25+/t32-,33-,35-,36-,38-,39-,40-,41-/m0/s1
INCHIAUX=
PUBMED=
SUBMITUSER=arihiro1013
LIBRARYQUALITY=3
SPECTRUMID=CCMSLIB00004722208
SCANS=675
196.88269 2851.0 
199.003479 2235.0 
303.060181 1069.0 
308.532593 4693.0 
357.152161 5131.0 
367.414551 1560.0 
382.311157 1627.0 
384.325928 37838.0 
386.481506 1847.0 
401.156128 77099.0 
401.799927 2.0 
418.343994 2112.0 
450.053406 603.0 
490.95752 4800.0 
492.771912 5243.0 
554.342773 2532.0 
569.419434 3332.0 
577.88501 2914.0 
591.415527 2679.0 
607.042603 4712.0 
608.573975 4797.0 
622.466064 3473.0 
628.877441 3257.0 
635.614258 3472.0 
646.663818 2702.0 
647.433105 50319.0 
648.486938 18994.0 
652.976562 4993.0 
664.953491 17103.0 
665.967041 3789.0 
666.65271 8738.0 
END IONS

