BEGIN IONS
PEPMASS=211.061
CHARGE=1+
COMPOUNDNAME="MLS000877011-01!1-(3-acetyl-2,4,6-trihydroxyphenyl)ethanone"
LIBRARYQUALITY=1
SMILES=CC(=O)c1c(O)cc(O)c(C(=O)C)c1O
INCHIKEY=PIFFQYJYNWXNGE-UHFFFAOYSA-N
INCHI=N/A
MSLEVEL=2
SOURCE_INSTRUMENT=LC-ESI-qTof
FILENAME=p2-E06_GE6_01_18030.mzXML
SEQ=*..*
IONMODE=Positive
ORGANISM=GNPS-NIH-NATURALPRODUCTSLIBRARY
NAME="MLS000877011-01!1-(3-acetyl-2,4,6-trihydroxyphenyl)ethanone" M+H
PI=Dorrestein
DATACOLLECTOR=VVP/LMS
PUBMED=N/A
SUBMITUSER=vphelan
TAGS=
SPECTRUMID=CCMSLIB00000080277
SCANS=2070
95.049744 168.0 
98.631897 180.0 
102.008759 256.0 
102.042938 176.0 
102.798523 168.0 
104.541054 44.0 
104.7528 188.0 
105.033455 316.0 
106.764801 152.0 
107.009666 176.0 
108.586357 164.0 
108.629913 148.0 
109.027565 2448.0 
109.055588 88.0 
109.140823 56.0 
109.47168 52.0 
109.515411 104.0 
109.680023 52.0 
110.035271 352.0 
110.421234 96.0 
110.676537 112.0 
111.03698 200.0 
111.42321 160.0 
111.519875 20.0 
112.767624 200.0 
117.030029 196.0 
118.039864 164.0 
118.329369 140.0 
118.841301 104.0 
118.951981 132.0 
119.049828 520.0 
119.080093 176.0 
119.538803 52.0 
120.057678 172.0 
120.493828 208.0 
121.034065 128.0 
121.369308 152.0 
123.04258 800.0 
125.000839 88.0 
125.020866 180.0 
130.555328 148.0 
131.213379 188.0 
133.032928 148.0 
133.190567 176.0 
133.560638 124.0 
133.733215 128.0 
133.875946 164.0 
134.034073 292.0 
136.414124 172.0 
139.196777 240.0 
140.911514 168.0 
143.043518 60.0 
144.836792 64.0 
145.45784 48.0 
146.491852 100.0 
146.643661 164.0 
146.703918 136.0 
147.042892 2692.0 
147.114014 32.0 
147.309616 172.0 
147.476349 92.0 
147.667358 104.0 
147.875427 92.0 
148.048523 772.0 
149.022446 208.0 
150.037338 160.0 
151.037125 2040.0 
152.018539 168.0 
152.040115 152.0 
153.016251 136.0 
154.012756 132.0 
154.042389 124.0 
156.652054 112.0 
157.029022 480.0 
159.673218 68.0 
165.057343 276.0 
166.053345 176.0 
166.261154 144.0 
174.301483 120.0 
174.758987 196.0 
174.798462 164.0 
174.819519 68.0 
175.039719 1556.0 
175.066971 92.0 
175.209198 128.0 
175.325134 84.0 
175.396301 112.0 
175.530762 64.0 
175.681091 40.0 
176.041168 508.0 
178.042114 196.0 
178.972824 76.0 
183.385056 116.0 
184.19722 252.0 
185.122208 196.0 
192.851334 184.0 
193.04747 1664.0 
193.106812 156.0 
193.288284 52.0 
193.307648 44.0 
194.057114 244.0 
194.174759 84.0 
197.117325 96.0 
198.130188 184.0 
202.995117 136.0 
204.89949 68.0 
211.057709 352.0 
213.067551 132.0 
232.931442 116.0 
296.231934 52.0 
304.461731 100.0 
407.485962 80.0 
767.780884 160.0 
852.539673 88.0 
881.802185 184.0 
982.864014 208.0 
1018.02124 176.0 
1032.17395 200.0 
1034.58606 192.0 
1042.995728 120.0 
1071.89917 148.0 
1098.801392 180.0 
1154.29248 20.0 
1162.288818 176.0 
1175.407593 228.0 
1216.552246 52.0 
1239.981689 92.0 
1249.587646 148.0 
1256.865845 204.0 
1262.19873 188.0 
1270.02417 164.0 
1275.633667 188.0 
1286.104492 96.0 
1305.282593 192.0 
1324.349243 188.0 
1347.160278 176.0 
1354.965942 148.0 
1357.311279 252.0 
1364.558105 236.0 
1377.410156 188.0 
1401.811646 208.0 
1403.943604 216.0 
1409.049072 204.0 
1434.504272 188.0 
1443.556641 32.0 
1445.122437 92.0 
1447.203735 20.0 
1458.750366 168.0 
1461.404419 48.0 
1468.725342 180.0 
1469.457642 152.0 
1473.702637 92.0 
1477.464111 84.0 
1479.162842 144.0 
1488.639038 188.0 
1491.10498 248.0 
1499.933105 260.0 
1501.613892 164.0 
END IONS

