BEGIN IONS
PEPMASS=850.4
CHARGE=0+
MSLEVEL=2
SOURCE_INSTRUMENT=LC-ESI-Ion Trap
FILENAME=20130610_Ger_Jenia_Apratoxin_F_MNa850.4-qb.1.1..mgf
SEQ=*..*
IONMODE=Positive
ORGANISM=GNPS-LIBRARY
NAME=Apratoxin F M+Na
PI=Gerwick
DATACOLLECTOR=Jenia
SMILES=CC[C@H](C)[C@@H]1N(C)C(=O)[C@H](C)N(C)C(=O)[C@H](CC2=CC=C(OC)C=C2)NC(=O)\C(C)=C/C2CSC(=N2)[C@@H](C)[C@@H](O)C[C@H](C)C[C@H](OC(=O)[C@H](C)N(C)C1=O)C(C)(C)C
INCHI=InChI=1S/C44H69N5O8S/c1-15-26(3)37-42(54)48(12)30(7)43(55)57-36(44(8,9)10)21-25(2)20-35(50)28(5)39-45-32(24-58-39)22-27(4)38(51)46-34(23-31-16-18-33(56-14)19-17-31)41(53)47(11)29(6)40(52)49(37)13/h16-19,22,25-26,28-30,32,34-37,50H,15,20-21,23-24H2,1-14H3,(H,46,51)/b27-22-/t25-,26-,28-,29-,30-,32?,34-,35-,36-,37-/m0/s1
INCHIAUX=BAYCKSGCVUIVNR-MJEAVDSUSA-N
PUBMED=N/A
SUBMITUSER=mwang87
LIBRARYQUALITY=1
SPECTRUMID=CCMSLIB00000001791
SCANS=1
268.0979 3226.0 
330.771088 42713.0 
333.244385 1734.0 
337.735962 9554.0 
344.490967 41547.0 
352.843567 10366.0 
358.849823 79384.0 
359.486908 4482.0 
365.372925 7714.0 
366.900269 1662.0 
367.591919 7071.0 
371.758209 20962.0 
375.625366 20649.0 
378.928253 51739.0 
381.001709 20828.0 
381.841553 65460.0 
382.63208 711.0 
390.004517 16856.0 
390.852783 6488.0 
392.596161 19040.0 
394.098114 97720.0 
398.975098 31862.0 
400.045258 14508.0 
410.200562 15203.0 
410.787354 2953.0 
412.07373 56149.0 
412.872437 25266.0 
414.863953 4882.0 
417.431519 41322.0 
418.550903 302.0 
421.878448 135135.0 
422.655182 5.0 
427.636414 39540.0 
432.849243 10538.0 
433.47168 9661.0 
438.063629 8819.0 
439.162598 45628.0 
439.701782 38860.0 
441.159668 15559.0 
442.437683 2550.0 
444.012054 189519.0 
445.08609 1993.0 
446.265442 1948.0 
449.148071 35933.0 
449.700562 842.0 
450.890015 24339.0 
451.99765 46783.0 
452.65097 30117.0 
453.347809 15710.0 
466.080505 509088.0 
467.137238 85353.0 
480.169922 9241.0 
484.059662 1475127.0 
485.130432 139832.0 
485.722809 2.0 
488.759399 13033.0 
490.152863 25356.0 
492.107758 114867.0 
495.043884 5031.0 
496.037018 54529.0 
498.952332 2532.0 
506.266785 37758.0 
513.433838 2357.0 
522.279907 11988.0 
533.230713 20419.0 
534.137695 7719.0 
535.102783 68770.0 
535.698242 4950.0 
537.104248 420024.0 
538.302307 33681.0 
546.020142 2612.0 
548.191406 4073.0 
549.549316 35689.0 
551.867676 10519.0 
553.20105 34632.0 
554.506409 22496.0 
556.964966 11089.0 
557.471436 1756.0 
562.779297 2168.0 
564.25415 7745.0 
565.644287 5893.0 
566.857239 12473.0 
567.540771 2.0 
569.415039 7314.0 
571.06543 110416.0 
572.148804 8478.0 
572.965454 7653.0 
573.629761 15236.0 
574.540466 14882.0 
575.2229 26203.0 
576.154785 21626.0 
577.130737 77802.0 
578.098145 25115.0 
580.200378 11960.0 
583.406006 4616.0 
592.333252 30340.0 
593.148376 9111149.0 
594.145569 1882185.0 
598.247559 6832.0 
599.358398 3934.0 
604.813354 15414.0 
611.137329 895501.0 
612.088318 203467.0 
612.801331 13.0 
615.061768 6592.0 
615.997559 970.0 
617.374512 2291.0 
620.068115 130331.0 
621.344299 18757.0 
624.363647 7474.0 
633.118591 34234.0 
633.752563 1.0 
638.156494 120685.0 
639.249878 8952.0 
669.103516 14244.0 
685.495361 6989.0 
686.277832 59517.0 
687.124146 23581.0 
690.877991 25862.0 
691.594849 1278.0 
696.233459 698181.0 
697.229004 143758.0 
703.224121 5545.0 
714.373718 79177.0 
725.184326 23143.0 
726.731201 10181.0 
729.455811 90395.0 
730.568176 11852.0 
733.417358 11655.0 
746.515625 25206.0 
747.280701 679087.0 
748.244934 199804.0 
763.405518 58898.0 
764.743103 30839.0 
765.489136 7606.0 
766.153809 29295.0 
768.395264 1403.0 
774.399658 2520.0 
778.606445 2360.0 
790.156372 2481.0 
791.443726 14689.0 
792.285034 2064.0 
796.656372 7947.0 
805.154236 22701.0 
808.531494 4539.0 
832.405396 5486.0 
END IONS

