BEGIN IONS
PEPMASS=608.0
CHARGE=0+
MSLEVEL=2
SOURCE_INSTRUMENT=LC-ESI-Ion Trap
FILENAME=20130604_Ger_Jenia_Malyngamide_J_MH608-qb.1.1..mgf
SEQ=*..*
IONMODE=Positive
ORGANISM=GNPS-LIBRARY
NAME=Malyngamide J M+H
PI=Gerwick
DATACOLLECTOR=Jenia
SMILES=CCCCCCC[C@@H](C\C=C\CCC(=O)NCCC(=C)[C@]12O[C@H]1[C@H](OC1OCC(OC)C(O)C1OC)C=C(C)C2=O)OC
INCHI=InChI=1S/C33H53NO9/c1-7-8-9-10-12-15-24(38-4)16-13-11-14-17-27(35)34-19-18-23(3)33-30(37)22(2)20-25(31(33)43-33)42-32-29(40-6)28(36)26(39-5)21-41-32/h11,13,20,24-26,28-29,31-32,36H,3,7-10,12,14-19,21H2,1-2,4-6H3,(H,34,35)/b13-11+/t24-,25+,26?,28?,29?,31-,32?,33+/m0/s1
INCHIAUX=UZMVEOVJASEKLP-BYPNWZLWSA-N
PUBMED=N/A
SUBMITUSER=mwang87
LIBRARYQUALITY=1
SPECTRUMID=CCMSLIB00000001785
SCANS=1
175.014008 1684.0 
192.072906 1692.0 
209.779663 2270.0 
224.335022 1047.0 
236.332825 1713.0 
272.723511 303.0 
274.761963 478.0 
382.200684 1106.0 
392.527954 1676.0 
397.75354 348.0 
398.327942 1630.0 
415.924774 7570.0 
418.00708 419.0 
430.006531 1100.0 
439.535095 611.0 
447.965729 10124.0 
451.09259 505.0 
454.353271 3113.0 
464.952209 486.0 
492.733154 805.0 
503.803162 481.0 
526.112183 1094.0 
527.667236 309.0 
539.587402 2204.0 
544.141602 1693.0 
558.240234 2871.0 
576.024414 1593.0 
577.979248 2824.0 
579.066772 362.0 
583.858398 486.0 
589.837646 426.0 
596.244141 462.0 
607.336426 1215.0 
615.210144 2615.0 
616.463623 947.0 
END IONS

