BEGIN IONS
PEPMASS=510.2
CHARGE=0+
MSLEVEL=2
SOURCE_INSTRUMENT=LC-ESI-qTof
FILENAME=20130610_Ger_Jenia_Malynagamide_2_MNa510.2-qb.1.1..mgf
SEQ=*..*
IONMODE=Positive
ORGANISM=GNPS-LIBRARY
NAME=Malyngamide 2  M+Na
PI=Gerwick
DATACOLLECTOR=Jenia
SMILES=CCCCCCC[C@@H](C/C=C/CCC(=O)NC/C(=C/Cl)/[C@@H]1C(=O)[C@@H](C[C@H]([C@]1(C)O)O)O)OC
INCHI=InChI=1S/C25H42ClNO6/c1-4-5-6-7-9-12-19(33-3)13-10-8-11-14-22(30)27-17-18(16-26)23-24(31)20(28)15-21(29)25(23,2)32/h8,10,16,19-21,23,28-29,32H,4-7,9,11-15,17H2,1-3H3,(H,27,30)/b10-8+,18-16-/t19-,20+,21+,23+,25-/m0/s1
INCHIAUX=N/A
PUBMED=N/A
SUBMITUSER=mwang87
LIBRARYQUALITY=1
SPECTRUMID=CCMSLIB00000001800
SCANS=1
162.916718 11187.0 
189.797729 3447.0 
199.501587 7968.0 
235.919861 3954.0 
236.797287 14267.0 
253.95575 19939.0 
257.97644 7227.0 
259.004272 11780.0 
262.85318 18037.0 
277.370972 1933.0 
278.197388 2625.0 
278.943726 11308.0 
294.559509 15189.0 
296.597534 4048.0 
300.833801 6499.0 
308.19397 14693.0 
320.714722 9023.0 
330.314331 848.0 
334.113647 8100.0 
344.118591 6769.0 
347.161499 3607.0 
347.792297 1502.0 
358.091919 10266.0 
365.02887 11510.0 
365.993103 10377.0 
367.068115 1883.0 
374.511353 14495.0 
384.221008 51114.0 
386.195129 225077.0 
386.963989 1470.0 
387.683105 1735.0 
393.947296 15793.0 
394.56427 5209.0 
395.213257 2197.0 
399.250244 4264.0 
401.026489 4611.0 
402.115356 32142.0 
402.758728 28438.0 
403.457062 4503.0 
405.417969 6371.0 
417.755432 21178.0 
419.991058 27742.0 
422.146027 472133.0 
423.218994 53577.0 
425.866333 2709.0 
426.396973 16596.0 
438.207733 349159.0 
439.018097 31225.0 
439.686584 1.0 
448.192261 7062.0 
449.369873 7128.0 
456.294373 43577.0 
460.670105 4204.0 
464.454712 20179.0 
466.250061 5128.0 
474.174744 3708640.0 
475.080566 121009.0 
476.93866 7280.0 
492.102722 217610.0 
493.03009 5753.0 
509.222656 1218.0 
510.076965 11060.0 
END IONS

