BEGIN IONS
PEPMASS=501.0
CHARGE=0+
MSLEVEL=2
SOURCE_INSTRUMENT=LC-ESI-qTof
FILENAME=20121213_Jenia_Ger_CarmaphycinA_enone_501-qb.1.1..mgf
SEQ=*..*
IONMODE=Positive
ORGANISM=GNPS-LIBRARY
NAME=Carmaphycin A_enone M+H
PI=Gerwick
DATACOLLECTOR=Jenia
SMILES=CC(C([C@H](CC(C)C)NC([C@H](CCS(C)=O)NC([C@H](C(C)C)NC(CCCCC)=O)=O)=O)=O)=C
INCHI=N/A
INCHIAUX=N/A
PUBMED=N/A
SUBMITUSER=mwang87
LIBRARYQUALITY=1
SPECTRUMID=CCMSLIB00000001685
SCANS=1
424.76593 7064.0 
472.411133 6227.0 
END IONS

