BEGIN IONS
PEPMASS=825.3
CHARGE=0+
MSLEVEL=2
SOURCE_INSTRUMENT=LC-ESI-Ion Trap
FILENAME=20130517_Ger_Jenia_Nodularin_MH825.3-qb.1.1..mgf
SEQ=*..*
IONMODE=Positive
ORGANISM=GNPS-LIBRARY
NAME=Nodularin M+H
PI=Gerwick
DATACOLLECTOR=Jenia
SMILES=CO[C@@H](CC1=CC=CC=C1)[C@@H](C)\C=C(/C)\C=C\[C@@H]1NC(=O)[C@H](CCCNC(N)=N)NC(=O)[C@@H](C)[C@@H](NC(=O)\C(=C\C)N(C)C(=O)CC[C@@H](NC(=O)[C@H]1C)C(O)=O)C(O)=O
INCHI=InChI=1S/C41H60N8O10/c1-8-31-38(54)48-34(40(57)58)26(5)36(52)46-29(15-12-20-44-41(42)43)37(53)45-28(25(4)35(51)47-30(39(55)56)18-19-33(50)49(31)6)17-16-23(2)21-24(3)32(59-7)22-27-13-10-9-11-14-27/h8-11,13-14,16-17,21,24-26,28-30,32,34H,12,15,18-20,22H2,1-7H3,(H,45,53)(H,46,52)(H,47,51)(H,48,54)(H,55,56)(H,57,58)(H4,42,43,44)/b17-16+,23-21+,31-8-/t24-,25-,26-,28-,29-,30+,32-,34+/m0/s1
INCHIAUX=IXBQSRWSVIBXNC-HSKGSTCASA-N
PUBMED=N/A
SUBMITUSER=mwang87
LIBRARYQUALITY=1
SPECTRUMID=CCMSLIB00000001776
SCANS=1
243.952484 2028036.0 
244.991394 854511.0 
245.940826 1361981.0 
246.541504 122.0 
247.363953 860246.0 
250.022247 939474.0 
252.32193 949079.0 
253.120483 532459.0 
257.878906 4362799.0 
260.3302 1039633.0 
264.78363 1153856.0 
265.943237 879350.0 
267.228149 697879.0 
267.879333 21.0 
277.996582 367612.0 
285.088989 13763746.0 
286.046631 1891097.0 
291.981689 1565649.0 
292.741699 1903136.0 
295.923096 1149793.0 
296.898315 249535.0 
299.088501 1006004.0 
303.100708 989062.0 
307.109436 245433.0 
312.252808 816091.0 
320.146362 907938.0 
321.014709 678754.0 
321.859985 1273560.0 
323.251038 2831852.0 
331.947144 310732.0 
338.180786 4232821.0 
339.393921 2765067.0 
340.009399 4145610.0 
340.680908 14.0 
343.065308 2008504.0 
348.043213 2994613.0 
348.771973 1676353.0 
351.015015 662966.0 
355.246399 2958565.0 
356.04895 1130411.0 
361.004028 7808853.0 
361.937988 3204605.0 
365.87262 3402199.0 
367.263184 81080.0 
368.772827 911930.0 
369.905151 988937.0 
371.101929 2804536.0 
380.255371 2201536.0 
382.532532 2874362.0 
383.189575 247438.0 
384.125122 1586479.0 
388.853027 19610048.0 
389.895569 388802.0 
391.387207 964838.0 
392.86792 275527.0 
393.913818 1733411.0 
397.288208 2535146.0 
399.717529 2413926.0 
400.39856 1927305.0 
404.86438 1678224.0 
406.30249 1297888.0 
407.184143 2633184.0 
414.067932 3471672.0 
420.110596 3299504.0 
420.972778 3103039.0 
432.224365 2742060.0 
432.94812 9.0 
434.500244 1297717.0 
435.966431 1114333.0 
440.098206 1192252.0 
444.925903 404461.0 
446.021362 1336499.0 
449.197449 4105733.0 
449.948364 1242270.0 
451.192566 3809353.0 
463.057129 4110309.0 
466.991333 7024477.0 
467.832397 1263677.0 
469.307861 1024110.0 
469.988953 2419062.0 
471.152466 883083.0 
472.404053 234070.0 
474.030945 631725.0 
475.177856 2238822.0 
476.328674 3523385.0 
477.224243 1870309.0 
477.995483 326380.0 
479.311401 2235044.0 
488.38031 3731431.0 
489.2901 88.0 
490.954041 3664066.0 
493.062927 4766057.0 
493.969055 2161563.0 
495.005554 3046898.0 
496.167419 1861822.0 
500.342712 1193914.0 
501.02948 1224235.0 
507.936096 1231567.0 
509.386414 415990.0 
510.451599 2618545.0 
512.260742 5620243.0 
512.989258 6465352.0 
518.044434 999487.0 
518.687012 62.0 
522.895386 1377194.0 
525.208496 5225189.0 
532.343506 1689768.0 
533.898193 2077157.0 
536.850464 3519754.0 
538.02002 4881683.0 
540.260254 3813161.0 
545.754883 2824504.0 
546.541626 8.0 
550.446045 3389217.0 
551.204346 226152.0 
555.182373 10917352.0 
556.245972 2780990.0 
556.850098 189.0 
562.439575 538285.0 
567.300415 882865.0 
568.254272 6429849.0 
569.214111 4418195.0 
570.209473 1383956.0 
571.083008 3179897.0 
574.340576 1161314.0 
579.186646 1219592.0 
582.094849 513022.0 
583.67749 6549022.0 
584.390381 21.0 
585.747314 572335.0 
595.150879 4341837.0 
596.053711 390.0 
599.396484 10175092.0 
600.210205 809.0 
607.518433 406105.0 
608.878662 1446424.0 
610.355469 356970.0 
611.481445 2350913.0 
613.27832 1183414.0 
614.317139 667216.0 
617.274658 2875306.0 
625.201416 3520706.0 
625.958008 423.0 
628.113525 3308368.0 
629.218018 4608087.0 
630.151367 6477228.0 
631.362549 1886862.0 
632.379883 1240910.0 
639.413818 2353210.0 
647.323486 5449170.0 
649.291016 538844.0 
651.582275 4117239.0 
652.285156 3141592.0 
656.261108 7234762.0 
657.126221 2070967.0 
660.600342 145448.0 
667.771729 1308675.0 
668.549316 3219571.0 
669.531738 70811.0 
674.235352 34613136.0 
675.056274 1183319.0 
678.383301 4494968.0 
679.369995 1775339.0 
681.557861 873927.0 
682.506348 1967596.0 
688.452881 1020104.0 
690.213379 2411885.0 
691.262695 23565064.0 
692.38855 4820964.0 
693.000732 83.0 
695.563965 2561865.0 
696.22168 5793509.0 
697.166992 5444221.0 
703.240479 2578630.0 
704.545898 1041964.0 
710.265747 2164006.0 
711.29187 2017409.0 
713.293091 4380654.0 
713.964111 1811548.0 
714.791016 30.0 
718.518921 452716.0 
719.506104 4133135.0 
721.321533 393685.0 
729.812744 829200.0 
730.420288 1967855.0 
732.253906 1292275.0 
733.424805 2195805.0 
734.207397 934435.0 
735.987915 6115792.0 
736.719116 47.0 
740.361694 8346577.0 
741.039429 1776250.0 
746.408081 3000915.0 
747.044556 558822.0 
748.235962 820419.0 
749.43396 2922619.0 
753.310425 21293328.0 
754.260986 4070156.0 
755.005493 12.0 
762.316772 5102933.0 
763.368286 7415676.0 
764.468384 9373622.0 
765.259888 2639939.0 
766.926025 149654.0 
773.987671 719907.0 
775.278442 5683133.0 
776.302856 21269928.0 
777.398071 7421471.0 
779.47583 6108211.0 
780.382812 3293534.0 
781.500854 87530592.0 
782.660645 2912175.0 
783.335083 1450877.0 
788.679077 735560.0 
790.175781 4088328.0 
793.417114 3004697.0 
794.195923 1065044.0 
797.328491 32443848.0 
798.434692 1651878.0 
807.373291 53690824.0 
808.276855 54045920.0 
809.342896 6134038.0 
809.980713 395.0 
END IONS

