BEGIN IONS
PEPMASS=531.99
CHARGE=1+
MSLEVEL=2
SOURCE_INSTRUMENT=LC-ESI-Ion Trap
FILENAME=carmaphycinB.mzXML
SEQ=*..*
IONMODE=Positive
ORGANISM=GNPS-LIBRARY
NAME=Carmaphycin B M+H
PI=Gerwick
DATACOLLECTOR=R de Felicio
SMILES=C[C@]1(OC1)C([C@H](CC(C)C)NC([C@H](CCS(=O)(C)=O)NC([C@H](C(C)C)NC(CCCCC)=O)=O)=O)=O
INCHI=N/A
INCHIAUX=N/A
PUBMED=24025162
SUBMITUSER=mwang87
LIBRARYQUALITY=1
SPECTRUMID=CCMSLIB00000006875
SCANS=1
153.288116 32619.0 
153.891968 1082047.0 
154.678116 10926.0 
162.101898 17333.0 
164.930359 44228.0 
169.136932 463.0 
169.789658 80324.0 
170.482422 7.0 
171.934738 98269.0 
172.549957 3.0 
175.819244 2464.0 
176.463531 5520.0 
181.175217 24217.0 
181.802505 1138185.0 
182.587387 10.0 
190.894699 32663.0 
191.885635 41695.0 
195.660309 1089.0 
197.768799 544391.0 
200.023682 18819.0 
216.059723 13524.0 
219.984955 422.0 
221.024948 46216.0 
222.223907 7373.0 
232.588928 241.0 
233.264923 678.0 
233.942322 11845.0 
234.882904 808.0 
235.857178 57092.0 
236.690796 17043.0 
243.467606 10315.0 
244.917877 12878.0 
248.890533 5874.0 
254.933167 1318.0 
259.077881 15413.0 
260.070068 16483.0 
260.965881 87263.0 
261.88205 24721.0 
269.91864 1483.0 
271.780884 23166.0 
273.658447 571.0 
280.707886 1839.0 
281.94043 2030.0 
288.766357 53873.0 
298.89447 42860.0 
299.91864 141324.0 
300.734619 23873.0 
309.22937 2302.0 
316.884705 2312838.0 
317.675659 48.0 
332.848206 18639.0 
334.151978 4807.0 
334.886261 13922001.0 
335.65094 81.0 
336.764343 5195.0 
342.81958 16882.0 
360.094971 102574.0 
360.777222 1833213.0 
361.542297 7.0 
362.964294 76852.0 
363.569702 2.0 
378.867004 22905.0 
390.854797 1825.0 
397.12735 31746.0 
397.813293 1.0 
406.378601 1435.0 
417.018066 34291.0 
417.628479 1.0 
418.307922 4534.0 
432.895935 684.0 
433.990631 220465.0 
434.758301 1.0 
452.067688 49509.0 
458.01947 7212.0 
483.827271 968.0 
494.404663 2045.0 
496.146423 4393.0 
501.991638 95656.0 
514.111389 1427860.0 
514.89856 9.0 
530.843262 12172.0 
END IONS

