BEGIN IONS
PEPMASS=928.0
CHARGE=0+
MSLEVEL=2
SOURCE_INSTRUMENT=LC-ESI-qTof
FILENAME=20130408_Jenia_Ger_Lyngbyabellin_N_MNa928-qb.1.1..mgf
SEQ=*..*
IONMODE=Positive
ORGANISM=GNPS-LIBRARY
NAME=Lyngbyabellin N M+Na
PI=Gerwick
DATACOLLECTOR=Jenia
SMILES=C[C@H]1[C@@H](OC(=O)C2=CSC(=N2)[C@@H](COC(=O)C3=CSC(=N3)[C@@H](OC1=O)C(C)C)OC(=O)C[C@H]([C@H](CC(C)C)NC(=O)[C@H](C(C)C)N(C)C)OC(=O)C)CCCC(C)(Cl)Cl
INCHI=InChI=1S/C40H58Cl2N4O11S2/c1-20(2)15-25(43-34(49)32(21(3)4)46(10)11)29(54-24(8)47)16-31(48)55-30-17-53-38(51)26-18-59-36(45-26)33(22(5)6)57-37(50)23(7)28(13-12-14-40(9,41)42)56-39(52)27-19-58-35(30)44-27/h18-23,25,28-30,32-33H,12-17H2,1-11H3,(H,43,49)/t23-,25-,28-,29+,30+,32-,33-/m0/s1
INCHIAUX=N/A
PUBMED=N/A
SUBMITUSER=mwang87
LIBRARYQUALITY=1
SPECTRUMID=CCMSLIB00000001761
SCANS=1
565.066895 290437.0 
566.910156 82848.0 
600.66333 58752.0 
601.836914 67004.0 
687.041016 78416.0 
725.765747 32380.0 
754.412231 19203.0 
790.005127 21967.0 
830.414307 170389.0 
831.136353 4948748.0 
832.235718 2138630.0 
833.109497 565650.0 
866.970215 1882352.0 
867.919434 1182956.0 
868.835205 989915.0 
869.590698 24334.0 
891.068848 1812073.0 
892.190674 689407.0 
893.218262 564889.0 
894.518921 191114.0 
937.347412 81440.0 
END IONS

