BEGIN IONS
TITLE=Scan Number: 3082
PEPMASS=912.62799
CHARGE=1+
COMPOUNDNAME=Surugamide A
LIBRARYQUALITY=1
SMILES=NCCCCC1NC(C(NC(C(NC(C(C)NC(C(NC(C(NC(C(NC(C(NC1=O)C(CC)C)=O)Cc2ccccc2)=O)CC(C)C)=O)C(CC)C)=O)=O)C(CC)C)=O)C(CC)C)=O
INCHIKEY=NPYICXUUGUJPMM-UHFFFAOYSA-N
INCHI=InChI=1S/C48H81N9O8/c1-12-28(7)37-45(62)50-32(11)41(58)54-40(31(10)15-4)48(65)57-39(30(9)14-3)46(63)51-34(23-19-20-24-49)42(59)55-38(29(8)13-2)47(64)53-36(26-33-21-17-16-18-22-33)43(60)52-35(25-27(5)6)44(61)56-37/h16-18,21-22,27-32,34-40H,12-15,19-20,23-26,49H2,1-11H3,(H,50,62)(H,51,63)(H,52,60)(H,53,64)(H,54,58)(H,55,59)(H,56,61)(H,57,65)
MSLEVEL=2
SOURCE_INSTRUMENT=LC-ESI-Orbitrap
FILENAME=f.negarg/Hosein/comigration/Pure_Surugamide_Diluted.mzXML;
SEQ=*..*
NOTES=
IONMODE=Positive
ORGANISM=GNPS-LIBRARY
NAME=Surugamide A M+H
SPECTRUMID=CCMSLIB00000579271
ACTIVATION=CID
INSTRUMENT=ion trap
SCANS=3082
84.081009 61064960.0 
84.086899 1202383.625 
86.096931 240203584.0 
101.108147 1474733.375 
103.497887 711830.0 
112.112679 823886.6875 
112.227615 631256.9375 
118.22863 722910.5625 
120.081535 32025782.0 
120.090378 835642.25 
129.102341 140845664.0 
131.11824 934206.4375 
133.326096 714770.4375 
154.158569 2540454.0 
155.10701 636692.625 
155.117996 3296042.75 
157.133026 17677796.0 
169.171005 973455.5 
185.128403 25035132.0 
188.144119 1028063.3125 
197.165543 10911449.0 
199.179428 17971844.0 
214.192703 972829.4375 
224.177689 1405822.625 
225.16153 1007119.4375 
225.195541 4667147.0 
227.17424 17763318.0 
231.149551 1124131.375 
233.165588 33978892.0 
242.18631 17898092.0 
252.170013 1220579.125 
253.190567 12454027.0 
261.158295 49097916.0 
267.243805 1180458.75 
270.181 1254356.875 
271.144012 773064.125 
287.17804 2640155.25 
292.243378 770953.0 
295.237518 1650834.25 
296.197388 1303289.5 
298.213562 26749994.0 
301.22644 4426688.5 
313.221893 1123510.75 
328.249176 1093828.875 
329.220978 8615946.0 
332.198975 13534555.0 
335.718933 763653.375 
337.258759 839876.8125 
338.247894 1051962.5 
340.263184 3421539.25 
341.217773 2381181.75 
350.757874 1310775.0 
355.268616 3356142.5 
363.770721 1641161.5 
366.276001 7137512.5 
374.24469 22803894.0 
383.263672 1524442.25 
383.310059 5006144.0 
398.31131 744464.3125 
398.741455 832685.25 
400.263672 5277091.0 
411.291565 5258451.0 
417.292145 5906539.5 
423.334595 912939.4375 
426.307922 2513664.75 
442.307465 4190615.75 
445.277283 15646986.0 
454.298798 1121043.25 
457.317169 1338342.75 
459.336823 1279919.5 
468.357391 1472234.0 
474.346283 2623933.0 
479.353851 818039.625 
487.326294 2979433.75 
494.371338 949354.0 
502.342346 5737833.0 
513.343018 5397156.5 
530.337158 3083687.0 
539.394897 1013632.5625 
555.379211 909379.25 
558.368469 4962283.5 
567.389465 944699.4375 
573.371826 2920401.25 
587.429504 2559136.0 
615.428833 3290949.5 
641.437988 1540286.25 
658.473816 1479256.25 
686.451416 5660031.0 
714.458191 857972.875 
728.50116 928318.5 
799.536438 2878545.25 
912.027588 771417.625 
END IONS

