BEGIN IONS
PEPMASS=833.497
CHARGE=1+
MSLEVEL=2
SOURCE_INSTRUMENT=LC-ESI-qTof
FILENAME=1A2_CyanolideA_MH_833.mzXML
SEQ=*..*
IONMODE=Positive
ORGANISM=GNPS-LIBRARY
NAME=Cyanolide A M+H
PI=Dorrestein/Gerwick
DATACOLLECTOR=Luzzatto/Garg
SMILES=[H][C@]12C[C@H](O[C@@H]3OC[C@@H](OC)[C@H](OC)[C@H]3OC)C(C)(C)[C@]([H])(CC(=O)O[C@H](CC)C[C@]3([H])C[C@H](O[C@@H]4OC[C@@H](OC)[C@H](OC)[C@H]4OC)C(C)(C)[C@]([H])(CC(=O)O[C@H](CC)C1)O3)O2
INCHI=InChI=1S/C42H72O16/c1-13-23-15-25-17-29(57-39-37(49-11)35(47-9)27(45-7)21-51-39)41(3,4)32(53-25)20-34(44)56-24(14-2)16-26-18-30(42(5,6)31(54-26)19-33(43)55-23)58-40-38(50-12)36(48-10)28(46-8)22-52-40/h23-32,35-40H,13-22H2,1-12H3/t23-,24-,25-,26-,27-,28-,29+,30+,31+,32+,35+,36+,37-,38-,39+,40+/m1/s1
INCHIAUX=DLSUXMZHOIJLGM-MNCMQQDLSA-N
PUBMED=20131814
SUBMITUSER=tal_lk
LIBRARYQUALITY=2
SPECTRUMID=CCMSLIB00000070246
SCANS=3231
95.084862 152.0 
97.242599 216.0 
99.044434 892.0 
99.363052 224.0 
101.058853 224.0 
101.126358 188.0 
108.734367 160.0 
109.20372 232.0 
111.045723 1688.0 
112.044739 252.0 
115.074318 612.0 
116.082138 212.0 
117.053154 200.0 
121.478767 252.0 
125.054802 284.0 
128.159653 216.0 
133.114304 228.0 
134.645111 192.0 
135.077164 160.0 
135.218246 292.0 
137.133102 552.0 
141.366333 160.0 
143.07045 4156.0 
143.565231 192.0 
144.070953 204.0 
144.742844 168.0 
145.099701 148.0 
147.114197 332.0 
148.120453 180.0 
149.192612 184.0 
153.096176 224.0 
156.935486 216.0 
158.189117 228.0 
161.077271 140.0 
161.137878 248.0 
165.125351 152.0 
169.085846 380.0 
169.408707 152.0 
174.934937 140.0 
175.096954 2668.0 
175.393097 160.0 
176.102386 220.0 
177.101959 192.0 
177.356216 192.0 
179.69545 188.0 
185.082397 212.0 
189.137192 160.0 
190.126221 204.0 
196.136765 244.0 
197.107574 212.0 
207.138 1368.0 
208.134109 156.0 
215.409424 160.0 
225.149124 708.0 
226.150635 408.0 
226.950073 424.0 
226.970566 220.0 
243.158081 1184.0 
244.163284 508.0 
245.16835 176.0 
256.963501 240.0 
261.161499 216.0 
261.18399 204.0 
289.939453 172.0 
297.199951 168.0 
298.219482 180.0 
306.80072 228.0 
307.82608 208.0 
308.210175 148.0 
311.716309 140.0 
313.17572 212.0 
331.176666 380.0 
346.63739 248.0 
353.65094 140.0 
356.909668 192.0 
386.210297 156.0 
394.871582 168.0 
414.387543 176.0 
430.914764 208.0 
431.278259 164.0 
435.91391 252.0 
441.213501 172.0 
447.276917 380.0 
448.873016 144.0 
449.290955 392.0 
450.281921 328.0 
450.319916 180.0 
465.280151 328.0 
466.651886 196.0 
467.303589 1736.0 
467.692505 164.0 
468.30835 216.0 
468.35199 140.0 
469.031525 188.0 
469.303009 152.0 
470.329346 148.0 
478.23645 160.0 
484.916229 148.0 
485.257996 156.0 
485.310699 4120.0 
486.130524 188.0 
486.314667 2508.0 
486.561005 104.0 
487.310944 1000.0 
488.317047 128.0 
488.590057 140.0 
488.761597 144.0 
488.924347 156.0 
497.944061 152.0 
499.316803 160.0 
513.341919 220.0 
520.316162 236.0 
524.053162 184.0 
524.344666 208.0 
545.314819 140.0 
555.448242 140.0 
557.305908 164.0 
575.353271 212.0 
577.344055 184.0 
577.422729 208.0 
578.923523 248.0 
595.32782 156.0 
596.356018 252.0 
607.343811 172.0 
621.323181 156.0 
641.383972 460.0 
641.44873 168.0 
642.389343 308.0 
659.400696 1436.0 
659.458801 300.0 
660.406677 476.0 
661.405884 332.0 
702.853149 240.0 
719.31488 176.0 
737.4198 164.0 
770.434204 140.0 
789.022156 152.0 
790.92334 256.0 
816.15387 172.0 
833.48291 264.0 
834.500732 168.0 
835.512146 172.0 
1405.52063 172.0 
1438.688843 196.0 
1502.466309 192.0 
1619.478149 216.0 
1694.710449 212.0 
1696.070923 236.0 
1765.141846 232.0 
1789.094727 196.0 
1796.0354 140.0 
1826.261719 208.0 
1848.314331 160.0 
1874.278442 180.0 
1921.819092 316.0 
1955.772949 176.0 
1955.975342 204.0 
1958.598267 200.0 
1977.60083 216.0 
1988.427002 184.0 
1989.855591 188.0 
1999.611938 196.0 
2004.089355 232.0 
END IONS

