BEGIN IONS
PEPMASS=826.4
CHARGE=0+
MSLEVEL=2
SOURCE_INSTRUMENT=LC-ESI-qTof
FILENAME=20130711_2190I_Viequeamide_A_MNa826.4-qb.1.1..mgf
SEQ=*..*
IONMODE=Positive
ORGANISM=GNPS-LIBRARY
NAME=Viequeamide_A M+Na
PI=Gerwick
DATACOLLECTOR=Jenia
SMILES=CC[C@H](C)[C@@H]1C(=O)N2CCC[C@H]2C(=O)N([C@H](C(=O)NC(C(=O)O[C@H](C(C(=O)N[C@H](C(=O)N([C@H](C(=O)O1)C(C)C)C)C(C)C)(C)C)CCCC#C)[C@@H](C)O)C(C)C)C
INCHI=InChI=1S/C42H69N5O10/c1-15-17-18-21-29-42(11,12)41(55)44-30(23(3)4)37(51)46(14)33(25(7)8)40(54)57-34(26(9)16-2)38(52)47-22-19-20-28(47)36(50)45(13)32(24(5)6)35(49)43-31(27(10)48)39(53)56-29/h1,23-34,48H,16-22H2,2-14H3,(H,43,49)(H,44,55)/t26-,27+,28-,29-,30-,31?,32-,33-,34+/m0/s1
INCHIAUX=N/A
PUBMED=N/A
SUBMITUSER=mwang87
LIBRARYQUALITY=1
SPECTRUMID=CCMSLIB00000001810
SCANS=1
290.671265 1151.0 
336.777588 705.0 
349.897034 930.0 
386.290527 4027.0 
402.312378 1919.0 
427.738281 723.0 
432.191956 3942.0 
448.351868 5924.0 
460.092163 5382.0 
485.802185 918.0 
517.431396 794.0 
534.115234 527.0 
535.287231 1829.0 
579.356567 13126.0 
585.214233 366.0 
586.479492 2010.0 
612.281433 8538.0 
613.034668 3361.0 
613.805054 1180.0 
626.331787 1540.0 
632.192627 1352.0 
647.386719 2787.0 
663.471436 2613.0 
666.277344 657.0 
679.379395 6637.0 
680.193359 2384.0 
684.217773 1017.0 
686.484863 1981.0 
690.594727 498.0 
695.479004 696.0 
700.086426 2797.0 
704.378601 9607.0 
705.629395 1204.0 
707.31488 191350.0 
708.37616 73108.0 
709.0 1.0 
711.102783 1237.0 
713.439453 779.0 
725.418152 12798.0 
726.314941 5267.0 
730.137695 1717.0 
731.357544 986.0 
737.333862 2413.0 
741.246948 756.0 
758.335083 727.0 
762.360474 2203.0 
764.443237 36876.0 
765.442993 24978.0 
782.318481 17449.0 
782.839111 2872.0 
783.46814 3367.0 
791.027222 1555.0 
798.300659 1638.0 
808.4104 47843.0 
809.39502 11565.0 
END IONS

