BEGIN IONS
PEPMASS=926.2
CHARGE=0+
MSLEVEL=2
SOURCE_INSTRUMENT=LC-ESI-qTof
FILENAME=20130221_Jenia_Ger_Hoiamide_A_MH926.2-qb.1.1..mgf
SEQ=*..*
IONMODE=Positive
ORGANISM=GNPS-LIBRARY
NAME=Hoiamide_A M+H
PI=Gerwick
DATACOLLECTOR=Jenia
SMILES=CCC[C@@H](C)[C@@H]([C@H](C)[C@@H]1[C@H]([C@H](CC2=NC(=CS2)C3=N[C@](CS3)(C4=N[C@](CS4)(C(=O)N[C@H]([C@H]([C@H](C(=O)O[C@H](C(=O)N[C@H](C(=O)O1)[C@@H](C)O)C(C)C)C)O)[C@@H](C)CC)C)C)OC)C)O
INCHI=InChI=1S/C44H71N5O10S3/c1-14-16-23(6)33(51)25(8)36-24(7)29(57-13)17-30-45-28(18-60-30)38-48-44(12,20-61-38)42-49-43(11,19-62-42)41(56)47-31(22(5)15-2)34(52)26(9)39(54)58-35(21(3)4)37(53)46-32(27(10)50)40(55)59-36/h18,21-27,29,31-36,50-52H,14-17,19-20H2,1-13H3,(H,46,53)(H,47,56)/t22-,23+,24-,25-,26+,27+,29-,31-,32-,33-,34-,35-,36-,43+,44+/m0/s1
INCHIAUX=N/A
PUBMED=N/A
SUBMITUSER=mwang87
LIBRARYQUALITY=1
SPECTRUMID=CCMSLIB00000001729
SCANS=1
277.12146 20276.0 
277.980713 30528.0 
286.327393 86519.0 
302.186646 11018.0 
306.904053 8195.0 
315.949341 56942.0 
319.882935 6872.0 
321.945435 65412.0 
336.021484 11981.0 
336.952393 12931.0 
351.325195 4383.0 
354.610352 29578.0 
356.88855 70669.0 
358.114807 16655.0 
358.916718 70468.0 
361.768066 11037.0 
363.022278 40538.0 
371.06897 5605.0 
375.041748 14784.0 
376.023834 88499.0 
376.528931 20094.0 
377.094482 65018.0 
377.811523 1.0 
382.669037 44965.0 
387.939758 50254.0 
389.921234 63968.0 
390.911835 13701.0 
399.289551 4454.0 
406.750153 132322.0 
407.278198 77635.0 
409.016296 261294.0 
410.9646 10688.0 
419.047119 14276.0 
420.999725 78126.0 
422.094604 171626.0 
422.923889 77037.0 
424.03894 4819.0 
430.289001 4731.0 
435.957886 5880.0 
437.935486 66051.0 
439.820068 26261.0 
446.013184 5659.0 
447.032227 1971.0 
452.761475 6480.0 
453.933289 148654.0 
455.16156 24407.0 
457.089661 43238.0 
457.975922 100004.0 
459.110718 14194.0 
461.112549 161824.0 
466.176086 86447.0 
473.114624 16885.0 
474.29834 66462.0 
475.136353 57598.0 
475.891296 17882.0 
476.407074 131369.0 
478.911865 38595.0 
480.212524 16793.0 
480.713501 13371.0 
490.065033 22196.0 
490.90918 42497.0 
493.318481 125210.0 
494.924438 24821.0 
499.522705 16240.0 
500.229614 4004.0 
502.28949 43640.0 
503.122437 61444.0 
503.954102 12837.0 
507.129028 289393.0 
508.133911 105443.0 
516.880615 2064.0 
519.091736 208775.0 
520.179443 151468.0 
521.11499 676906.0 
521.984314 282546.0 
522.888428 88996.0 
529.334473 40705.0 
531.07666 13336.0 
532.020752 117998.0 
535.007202 47805.0 
536.717285 18374.0 
538.03125 35764.0 
539.166992 184296.0 
543.022705 143844.0 
544.037537 155136.0 
548.840332 10992.0 
550.876709 152891.0 
552.026001 148458.0 
553.097168 1059376.0 
554.138916 68954.0 
555.327942 19051.0 
555.943359 76762.0 
557.106812 201405.0 
557.956543 57972.0 
559.05542 15608.0 
563.69165 80675.0 
564.440796 13252.0 
565.817261 77837.0 
566.872192 25135.0 
571.12915 14103.0 
573.025146 15369.0 
575.102722 124427.0 
575.918945 65221.0 
578.148926 13847.0 
580.110657 10928.0 
580.967041 20207.0 
587.006836 7217.0 
588.016113 70330.0 
589.186401 3006.0 
593.050659 132661.0 
594.471436 117741.0 
597.14093 57941.0 
598.851196 328290.0 
599.481934 1.0 
601.194763 71876.0 
604.242798 6701.0 
605.125488 66949.0 
605.955322 84487.0 
608.105591 100359.0 
608.908447 26847.0 
610.966675 14473.0 
612.571899 80151.0 
613.266174 142834.0 
614.049561 6359.0 
615.164062 8119.0 
615.963867 46161.0 
617.119202 151628.0 
618.053223 238608.0 
619.074036 71385.0 
624.0979 150029.0 
625.332825 6235.0 
629.182373 129474.0 
630.485718 91062.0 
631.134705 210777.0 
633.158447 140614.0 
637.187866 235153.0 
638.104126 133271.0 
639.119507 19847.0 
639.659668 15223.0 
642.877014 323549.0 
645.205933 35752.0 
647.416138 58667.0 
648.284668 62787.0 
649.08667 1237074.0 
650.284546 116868.0 
651.009277 144760.0 
652.142944 8000.0 
653.493896 3012.0 
654.999756 16849.0 
656.123291 44091.0 
656.963562 303491.0 
658.042725 25410.0 
660.901245 621461.0 
661.439941 58531.0 
662.244629 43566.0 
663.086609 490856.0 
664.06842 85816.0 
664.630371 93.0 
670.098511 31620.0 
670.762207 11632.0 
671.415466 42038.0 
673.352051 35140.0 
674.450745 183296.0 
675.162781 1060338.0 
675.863159 19.0 
677.208984 36030.0 
678.303345 5519.0 
679.344971 61153.0 
688.150635 83688.0 
689.11731 695214.0 
689.93573 35987.0 
690.503174 70626.0 
693.085693 1019332.0 
694.302979 435813.0 
695.036621 7036.0 
698.111816 5957.0 
702.237549 49829.0 
704.420349 76017.0 
705.172485 68569.0 
706.220154 244246.0 
707.100891 664948.0 
708.131775 160372.0 
709.283203 6867.0 
710.294067 55917.0 
711.070068 53727.0 
712.228577 106027.0 
713.233887 67196.0 
714.879517 54884.0 
719.446533 16810.0 
720.161865 13804.0 
720.81958 1.0 
721.897339 50987.0 
723.324463 12155.0 
724.145508 753335.0 
725.131653 109824.0 
730.220215 12281.0 
731.235352 88604.0 
732.065857 148297.0 
732.880188 89514.0 
736.189392 68299.0 
737.125 116841.0 
738.090393 378419.0 
741.097534 13020.0 
743.014465 26279.0 
743.685669 81459.0 
744.269531 33388.0 
745.794922 15145.0 
746.331604 36078.0 
747.342773 100018.0 
748.163391 141549.0 
748.772949 1.0 
749.411621 39274.0 
750.096558 11.0 
751.368958 357954.0 
752.264893 19316.0 
753.286621 222376.0 
754.313599 11208.0 
754.850098 39876.0 
756.227234 677573.0 
757.224243 305923.0 
758.418762 98795.0 
759.535889 142696.0 
761.247131 192377.0 
762.804749 279541.0 
764.066956 103194.0 
765.112366 415324.0 
766.235657 206906.0 
767.17395 89327.0 
768.986816 253931.0 
769.863098 212607.0 
770.611938 58445.0 
771.210571 156764.0 
772.211731 114076.0 
772.875366 141849.0 
773.662109 35192.0 
775.281799 157489.0 
776.202148 462326.0 
777.210571 209185.0 
778.13562 225096.0 
779.175171 76788.0 
780.260986 56554.0 
781.052612 119965.0 
781.993713 173008.0 
782.715454 84751.0 
786.063599 5892.0 
787.165527 5193.0 
788.261353 13905.0 
788.908142 102485.0 
790.212341 180135.0 
791.271484 262503.0 
792.101379 254473.0 
793.223633 47159.0 
794.096313 4598531.0 
795.127441 1283405.0 
796.095703 371717.0 
797.019104 200322.0 
798.094421 114229.0 
801.761597 3791.0 
806.226562 50862.0 
807.130493 343946.0 
808.156128 474644.0 
809.257141 134783.0 
810.040283 66158.0 
812.116211 277672.0 
812.839478 24629.0 
814.2099 418749.0 
814.768494 4015.0 
815.436279 41989.0 
817.104126 1644.0 
817.702759 12969.0 
818.256531 95711.0 
819.242432 143748.0 
822.221191 70209.0 
824.111572 39169.0 
825.041321 623110.0 
826.453491 826120.0 
827.450867 544739.0 
828.249634 261403.0 
829.058105 125856.0 
830.325684 386502.0 
831.166138 110814.0 
832.21106 256294.0 
833.303772 30020.0 
834.421021 135966.0 
836.010315 45173.0 
836.530151 19918.0 
837.968628 1566.0 
840.379333 274523.0 
840.966553 36070.0 
841.534058 19274.0 
843.265076 41349.0 
844.462097 12786.0 
845.390259 22422.0 
846.465271 433472.0 
847.505554 359814.0 
848.32428 364042.0 
849.213074 85535.0 
850.318115 27904.0 
854.291992 312307.0 
857.171387 328003.0 
858.124023 3212771.0 
859.033203 340409.0 
859.592041 44733.0 
861.275146 222368.0 
862.240662 836409.0 
863.217957 173839.0 
864.164185 1240136.0 
865.194458 302187.0 
865.896362 7353.0 
871.609619 68468.0 
872.256653 467101.0 
873.264404 41267.0 
875.563538 1121065.0 
876.235962 6974744.0 
877.198425 812353.0 
877.799133 341.0 
878.313965 117074.0 
879.180908 557000.0 
880.322205 3530676.0 
881.426514 798464.0 
882.108704 197447.0 
883.262085 229441.0 
889.328369 97399.0 
890.234131 7131344.0 
891.278931 1631266.0 
892.102478 176103.0 
893.207153 833615.0 
893.887268 1574424.0 
894.393066 1523349.0 
895.215149 405974.0 
895.926208 1.0 
897.450012 56540.0 
898.126038 328808.0 
906.09314 114238.0 
907.339844 985952.0 
908.249451 15342980.0 
909.291443 2551218.0 
909.973511 288.0 
926.350952 4309.0 
END IONS

