BEGIN IONS
PEPMASS=771.3
CHARGE=0+
MSLEVEL=2
SOURCE_INSTRUMENT=LC-ESI-Ion Trap
FILENAME=20130719_Ger_Pluto_Hoiamide_C_MH771.3-qb.1.1..mgf
SEQ=*..*
IONMODE=Positive
ORGANISM=GNPS-LIBRARY
NAME=Hoiamide C M+H
PI=Gerwick
DATACOLLECTOR=Pluto
SMILES=CCC[C@@H](C)[C@H](O)[C@H](C)[C@@H](O)[C@@H](C)[C@H](CC1=NC(=CS1)C1=N[C@](C)(CS1)C1=N[C@](C)(CS1)C(=O)N[C@@H]([C@@H](C)CC)[C@@H](O)[C@@H](C)C(=O)OCC)OC
INCHI=InChI=1S/C37H62N4O7S3/c1-12-15-21(5)29(42)23(7)30(43)22(6)26(47-11)16-27-38-25(17-49-27)32-40-37(10,19-50-32)35-41-36(9,18-51-35)34(46)39-28(20(4)13-2)31(44)24(8)33(45)48-14-3/h17,20-24,26,28-31,42-44H,12-16,18-19H2,1-11H3,(H,39,46)/t20-,21+,22-,23-,24+,26-,28-,29-,30-,31-,36+,37+/m0/s1
INCHIAUX=STGNMXQTWDOGSE-FUVSMVGWSA-N
PUBMED=N/A
SUBMITUSER=mwang87
LIBRARYQUALITY=1
SPECTRUMID=CCMSLIB00000001811
SCANS=1
221.229614 1888.0 
247.355988 5128.0 
250.545166 4794.0 
277.21521 2966.0 
327.356079 1764.0 
337.044861 1635.0 
359.306396 7189.0 
372.085449 1882.0 
377.141846 7962.0 
378.0 1.0 
392.90686 1506.0 
409.087219 13507.0 
420.890137 1958.0 
422.252563 7605.0 
430.562012 1885.0 
457.123352 2055.0 
464.947754 1769.0 
475.046448 3164.0 
489.198792 2253.0 
494.971069 1671.0 
499.013916 4235.0 
503.3396 10467.0 
503.999939 1.0 
505.05249 6569.0 
507.330627 5012.0 
517.200317 3792.0 
521.263306 12666.0 
522.187866 3228.0 
527.160889 2865.0 
529.128784 2083.0 
531.253662 5596.0 
535.187744 1726.0 
539.200439 1140.0 
541.126099 14843.0 
545.357666 9939.0 
551.116089 45896.0 
553.269165 30701.0 
554.478638 3711.0 
563.248779 8464.0 
565.199219 2154.0 
569.28418 10614.0 
570.928223 2793.0 
575.262451 26168.0 
581.049316 3839.0 
583.163818 11774.0 
591.04187 13950.0 
593.218994 5657.0 
595.231934 13620.0 
601.36792 6440.0 
603.286743 16620.0 
607.118408 1298.0 
609.174438 147176.0 
612.858643 12670.0 
617.126587 3490.0 
620.54541 6400.0 
621.222656 383285.0 
623.347656 6596.0 
625.07959 5027.0 
631.324829 8077.0 
633.130615 3370.0 
635.635498 1835.0 
639.073975 2449.0 
640.602539 5892.0 
641.236328 266987.0 
642.0 1.0 
644.955566 16631.0 
651.255981 33721.0 
652.055664 2166.0 
653.251221 83889.0 
656.728271 11277.0 
657.346436 49133.0 
660.840332 6843.0 
669.120605 6587.0 
670.922363 4626.0 
675.306396 39539.0 
680.602051 5361.0 
681.221924 2015.0 
684.633667 6142.0 
685.461426 19746.0 
689.281006 45820.0 
689.966553 2.0 
693.16626 2960.0 
703.219238 972219.0 
703.948975 1039.0 
707.239624 225218.0 
707.891357 5747.0 
717.322998 52662.0 
721.281616 369111.0 
722.06665 1.0 
723.525391 2736.0 
725.263062 93447.0 
725.889893 2613.0 
735.230835 1101321.0 
736.0 1.0 
739.179688 41675.0 
739.866577 1.0 
753.203613 1825712.0 
754.0 2.0 
END IONS

