BEGIN IONS
TITLE=Scan Number: 1
PEPMASS=843.33398
CHARGE=1+
COMPOUNDNAME=Mureidomycin B
LIBRARYQUALITY=2
SMILES=CC(C(C(=O)NC=C1CC(C(O1)N2CCC(=O)NC2=O)O)NC(=O)C(CCSC)NC(=O)NC(CC3=CC(=CC=C3)O)C(=O)O)N(C)C(=O)C(CC4=CC(=CC=C4)O)N
INCHIKEY=DXBJHRPKFQGVGZ-NCELDCMTSA-N
INCHI=InChI=1S/C38H50N8O12S/c1-20(45(2)34(53)26(39)16-21-6-4-8-23(47)14-21)31(33(52)40-19-25-18-29(49)35(58-25)46-12-10-30(50)43-38(46)57)44-32(51)27(11-13-59-3)41-37(56)42-28(36(54)55)17-22-7-5-9-24(48)15-22/h4-9,14-15,19-20,26-29,31,35,47-49H,10-13,16-18,39H2,1-3H3,(H,40,52)(H,44,51)(H,54,55)(H2,41,42,56)(H,43,50,57)/b25-19+
MSLEVEL=2
SOURCE_INSTRUMENT=LC-ESI-qTof
FILENAME=1447_843.mzXML
SEQ=*..*
NOTES=
IONMODE=Positive
ORGANISM=GNPS-LIBRARY
NAME=Mureidomycin B M+H
SPECTRUMID=CCMSLIB00000075009
ACTIVATION=CID
INSTRUMENT=ion trap
SCANS=1
241.346405 0.729628 
246.019592 1.630063 
248.90538 2.657328 
255.349777 3.575085 
256.134521 3.644628 
259.168488 4.201001 
260.148163 1.964137 
263.211823 2.022336 
266.070282 3.678056 
267.020081 1.233397 
271.16214 3.692314 
272.213348 2.55967 
273.219543 6.257665 
277.099426 0.838967 
278.153473 11.78048 
280.092865 1.079023 
282.307434 0.688235 
288.239105 8.076531 
289.146881 1.429716 
290.146057 6.116257 
291.104309 2.04536 
293.091736 3.689516 
294.986755 2.536893 
296.962799 3.955067 
298.345215 5.800884 
299.313324 7.222595 
300.282837 2.443042 
301.136353 0.877766 
302.182556 1.931469 
306.340881 0.724151 
309.653168 3.464101 
310.578552 5.074158 
311.24646 11.31602 
316.080414 29.524078 
316.680542 1.104131 
318.056641 0.585846 
321.145538 24.451805 
323.072998 2.26704 
324.100525 1.579058 
325.981537 2.675265 
328.071198 1.159589 
334.170532 7.806337 
335.21933 0.742696 
335.982727 2.829541 
339.072144 178.168182 
340.099365 7.446046 
345.216217 2.977767 
346.291046 2.490595 
347.431183 3.284258 
351.997406 2.826885 
353.245148 1.194966 
355.381226 4.806081 
356.21991 6.332895 
357.228546 1.163168 
359.120972 2.316574 
360.42218 1.764675 
363.651245 3.660898 
371.438232 0.686842 
373.177704 133.444748 
374.049377 5.69838 
374.738892 1.2906 
376.155823 2.125623 
378.254395 7.272264 
380.364929 1.100853 
383.444092 1.109538 
385.258789 2.269011 
386.442322 0.932069 
388.096893 3.614465 
391.221863 65.24617 
392.263428 11.364307 
394.250977 28.29159 
395.600342 3.60275 
396.302002 1.095994 
397.304565 3.1369 
404.252441 23.99386 
405.286926 1.452692 
409.19577 51.568687 
410.397247 1.075969 
411.093292 1.325215 
412.312866 3.293046 
413.378967 2.155403 
416.026123 1.859021 
417.206848 1.231951 
420.396484 1.778736 
422.124329 117.754456 
422.978699 11.712114 
424.318817 7.92759 
426.409119 3.828783 
428.321045 0.550675 
429.639862 3.421834 
430.278107 11.995749 
432.336304 3.144783 
435.290344 33.931599 
436.196106 1.744543 
438.339722 0.717182 
439.293396 1.063123 
442.359741 15.744764 
445.630615 2.188015 
447.71106 9.307135 
448.460968 47.32309 
449.38916 9.176653 
450.252014 15.49156 
451.928162 6.570362 
453.187988 4.723238 
455.401245 8.395213 
456.29007 2.835079 
458.122009 5.617615 
465.439636 1.322278 
467.616089 4.107505 
468.454895 2.74733 
469.427032 6.577909 
470.26062 11.937881 
471.315125 4.371784 
473.226562 7.116515 
476.040955 2.283246 
481.018311 0.854654 
482.41626 1.325613 
485.489868 10.987837 
487.184662 106.318016 
488.258881 5.466485 
489.99649 1.086335 
491.313965 5.497025 
492.363159 4.039779 
495.17041 0.73135 
497.108124 0.896399 
499.202545 62.778599 
500.402802 4.287453 
502.368896 3.202693 
503.04715 0.781414 
504.242462 320.69397 
505.236267 113.998131 
506.128265 3.193587 
512.281372 18.52087 
513.162964 13.277807 
514.26532 2.532555 
516.92041 12.061146 
517.690063 4.135746 
518.338013 1.663692 
519.282227 4.505008 
520.036987 6.808095 
522.231689 132.222931 
523.417725 8.281408 
524.069458 5.335968 
530.207397 517.82428 
531.102539 13.493614 
532.94458 1.596431 
534.905762 3.653999 
536.323364 0.513701 
537.000488 0.63245 
539.239746 1.197321 
541.106201 2.713119 
543.025452 1.59118 
546.328247 5.493893 
548.153381 418.715454 
549.281494 10.498291 
551.962036 0.970625 
556.601074 4.305473 
558.147583 4.919652 
559.203125 7.428627 
560.38147 1.602121 
564.301758 2.909602 
566.1604 15.426085 
566.968933 1.779716 
569.626648 0.878242 
570.228394 22.715704 
576.350464 1.66803 
579.309204 8.304834 
580.174683 1.485448 
585.032104 7.529951 
587.107056 5.172391 
589.101013 1.20682 
590.557678 2.181422 
598.103638 51.011715 
598.938599 6.220253 
600.105835 8.700087 
602.345215 0.823141 
603.267456 16.192162 
604.741272 3.075327 
605.384155 4.6652 
613.029724 2.55405 
616.125732 403.156128 
617.130371 17.208399 
618.322693 73.285599 
623.314392 1.346911 
626.28894 17.123558 
627.807312 1.966226 
631.186218 22.09874 
633.327515 7.745511 
634.21582 13.595118 
635.214539 35.07439 
636.299805 378.820404 
637.353943 13.654442 
639.469849 1.669135 
642.273376 8.639545 
643.235229 26.5121 
644.220947 236.786484 
645.044067 4.391314 
645.668579 0.966421 
647.233154 1.246144 
648.158691 6.032753 
649.157349 4.851113 
654.168457 7.742532 
655.968445 2.091494 
659.32074 4.782081 
660.373169 30.770433 
661.504272 130.308273 
662.21344 1353.008789 
663.263428 48.72596 
664.045593 8.522965 
665.512207 4.554469 
666.376831 1.269293 
667.145874 2.222694 
670.064575 4.599858 
672.222046 4.164162 
676.335449 24.014807 
677.164062 2.776608 
678.314209 11.242338 
680.148315 96.180283 
680.987244 6.164604 
681.912842 1.956347 
683.396423 7.642846 
684.181213 5.634783 
687.695862 1.72695 
693.210938 183.340179 
694.220459 69.707352 
697.213501 1.346888 
701.176331 11.181088 
701.798828 0.564375 
705.481873 3.10203 
706.569214 1.880353 
708.258057 2.6195 
711.233887 2467.332764 
712.246826 31.041258 
713.154175 6.951923 
714.359497 1.411359 
715.273376 1.594084 
718.645752 1.504433 
720.370239 1.708379 
722.156616 10.386417 
723.199402 58.581421 
723.986328 8.188599 
725.565186 8.546379 
726.198364 0.957505 
729.130371 2466.340576 
730.012085 19.177763 
736.008911 1.674507 
737.117432 0.446139 
743.560791 0.777541 
746.967285 2.771875 
749.621948 2.2297 
751.188965 4.109394 
751.942505 2.542848 
753.452393 1.481915 
754.586548 1.445149 
757.424194 1.489469 
761.122803 2.67665 
762.010742 7.609469 
768.203003 5.091278 
770.692871 4.266268 
771.702148 1.509964 
772.450317 0.324912 
777.402466 4.17991 
778.241577 2.466213 
779.395386 2.89673 
780.191162 2.231205 
781.268677 15.35014 
782.09314 3.043869 
786.206421 14.108563 
789.165405 7.383331 
790.43335 2.839109 
794.165649 12.207245 
794.78894 4.985582 
795.807861 6.587932 
797.037964 4.850303 
797.832275 2.762281 
799.010864 0.987879 
801.447876 1.84773 
804.887817 4.072826 
805.658569 2.668202 
807.121582 24.261398 
807.914551 15.070538 
808.634888 3.320151 
809.664307 3.435056 
812.239136 0.998472 
814.550049 0.41375 
815.455078 4.231636 
816.068604 1.243376 
823.175537 10.034966 
824.154663 87.439285 
825.195312 845.912292 
826.359497 11.929709 
832.438721 5.439654 
839.041138 1.676733 
844.781982 3.704431 
END IONS

