BEGIN IONS
PEPMASS=854.35
CHARGE=1+
MSLEVEL=2
SOURCE_INSTRUMENT=LC-ESI-Ion Trap
FILENAME=f.arihiro1013/purec_ompounds_0223/izenaA_190223183132.mzXML;
SEQ=*..*
IONMODE=Positive
ORGANISM=GNPS-LIBRARY
NAME=Izenamide A M+Na
PI=Gerwick
DATACOLLECTOR=Arihiro Iwasaki
SMILES=O=C(N([C@H](CC1=CC=CC=C1)C(N2CCC[C@H]2C(OC)=O)=O)C)[C@H](C)NC([C@@]([C@@H](C)CC)([H])NC(C[C@H](O)[C@H](CC(C)C)NC([C@](C(C)C)([H])OC([C@H](C(C)C)O)=O)=O)=O)=O
INCHI=InChI=1S/C43H69N5O11/c1-12-27(8)35(46-34(50)23-33(49)30(21-24(2)3)45-39(53)37(26(6)7)59-43(57)36(51)25(4)5)38(52)44-28(9)40(54)47(10)32(22-29-17-14-13-15-18-29)41(55)48-20-16-19-31(48)42(56)58-11/h13-15,17-18,24-28,30-33,35-37,49,51H,12,16,19-23H2,1-11H3,(H,44,52)(H,45,53)(H,46,50)/t27-,28-,30-,31-,32+,33-,35-,36-,37+/m0/s1
INCHIAUX=
PUBMED=29944370
SUBMITUSER=arihiro1013
LIBRARYQUALITY=3
SPECTRUMID=CCMSLIB00004753003
SCANS=594
312.955017 37116.0 
327.844604 27173.0 
384.03894 19260.0 
385.141113 15208.0 
479.148438 46938.0 
493.377075 27183.0 
497.153076 94880.0 
498.031738 51647.0 
498.776917 13.0 
506.250305 29747.0 
521.218018 271303.0 
522.246338 52182.0 
535.081787 23039.0 
536.421143 378976.0 
537.090088 14101.0 
539.439697 2434003.0 
540.415283 101149.0 
564.399658 551731.0 
565.191162 59732.0 
595.391113 23434.0 
636.321533 76783.0 
642.420532 27568.0 
664.494141 3454391.0 
665.423096 310543.0 
680.512451 21126.0 
722.8479 44419.0 
725.898926 45846.0 
736.369629 364833.0 
737.063965 1.0 
754.536377 524431.0 
755.521851 75150.0 
778.830322 109631.0 
822.445679 57924.0 
836.626099 535803.0 
837.503174 160685.0 
853.816162 352715.0 
854.544556 33400008.0 
855.486572 16697550.0 
856.099121 3017.0 
END IONS

