BEGIN IONS
PEPMASS=861.58
CHARGE=1+
MSLEVEL=2
SOURCE_INSTRUMENT=LC-ESI-qTof
FILENAME=f.arihiro1013/purecompounds_3rdconversion/201909_kurahyne.mzXML;
SEQ=*..*
IONMODE=Positive
ORGANISM=GNPS-LIBRARY
NAME=Kurahyne M+Na
PI=Gerwick
DATACOLLECTOR=Arihiro Iwasaki
SMILES=C#CCCC/C=C(C(N([C@@](C(N([C@@](C(N([C@H](C(N([C@H](C(N1[C@@H](CCC1)C(N2[C@@H](CCC2)C(CC)=O)=O)=O)C(C)C)C)=O)C(C)C)C)=O)([H])[C@@H](C)CC)C)=O)([H])[C@@H](C)CC)C)=O)\C
INCHI=InChI=1S/C47H78N6O7/c1-16-20-21-22-25-34(11)42(55)50(14)40(32(9)17-2)46(59)51(15)41(33(10)18-3)45(58)48(12)38(30(5)6)44(57)49(13)39(31(7)8)47(60)53-29-24-27-36(53)43(56)52-28-23-26-35(52)37(54)19-4/h1,25,30-33,35-36,38-41H,17-24,26-29H2,2-15H3/b34-25+/t32-,33-,35-,36-,38-,39-,40-,41-/m0/s1
INCHIAUX=
PUBMED=
SUBMITUSER=arihiro1013
LIBRARYQUALITY=3
SPECTRUMID=CCMSLIB00004722209
SCANS=675
261.838379 47659.0 
275.949707 22961.0 
301.553467 9219.0 
302.154541 6627.0 
317.009338 6636.0 
329.435669 36164.0 
360.010498 94138.0 
361.119385 6320.0 
384.638062 11988.0 
385.622864 4562.0 
399.834351 8893.0 
402.346558 24674.0 
415.161621 21273.0 
423.943237 18730.0 
425.924438 48677.0 
428.796875 4908.0 
429.619385 49409.0 
442.222656 170166.0 
442.888794 18.0 
473.356934 1213552.0 
474.329468 133032.0 
475.06665 1.0 
501.030029 11634.0 
502.567017 5280.0 
524.367432 53654.0 
525.509277 12021.0 
527.353027 23340.0 
553.491455 16430.0 
554.806152 3844.0 
555.54834 8774.0 
556.379395 4587.0 
569.395386 35071.0 
570.349854 11661.0 
595.373779 40097.0 
599.767578 99618.0 
600.481689 4662436.0 
601.546387 598567.0 
602.297607 9267.0 
609.440186 24887.0 
614.405518 13639.0 
637.229492 182743.0 
637.959961 5.0 
640.509521 6600.0 
673.389648 10563.0 
696.334106 7530.0 
706.604004 86537.0 
707.556763 34702.0 
714.545654 7437.0 
725.703857 17117.0 
726.470459 19264.0 
727.09375 21194.0 
730.791504 4337.0 
737.195312 8062.0 
752.059204 37869.0 
761.537964 25749.0 
763.436768 19707.0 
776.555542 17139.0 
787.70166 14735.0 
792.337769 36622.0 
793.345825 46078.0 
804.363403 34037.0 
805.227539 4482.0 
817.440918 15374.0 
819.64978 52008.0 
821.382935 45569.0 
822.086792 4802.0 
834.075073 12424.0 
843.682861 75797.0 
860.392822 38188.0 
861.65332 13235718.0 
862.511353 7133690.0 
863.295776 492.0 
END IONS

