BEGIN IONS
PEPMASS=360.0
CHARGE=0+
MSLEVEL=2
SOURCE_INSTRUMENT=LC-ESI-Ion Trap
FILENAME=20130408_Jenia_Ger_Curacin_D_MH360-qb.1.1..mgf
SEQ=*..*
IONMODE=Positive
ORGANISM=GNPS-LIBRARY
NAME=Curacin D M+H
PI=Gerwick
DATACOLLECTOR=Jenia
SMILES=[H]\C(CCC(CC=C)OC)=C/C=C/CC\C=C/C1CSC(=N1)[C@]1([H])C[C@]1([H])C
INCHI=InChI=1S/C22H33NOS/c1-4-13-20(24-3)15-12-10-8-6-5-7-9-11-14-19-17-25-22(23-19)21-16-18(21)2/h4-6,8,10-11,14,18-21H,1,7,9,12-13,15-17H2,2-3H3/b6-5+,10-8+,14-11-/t18-,19?,20?,21+/m0/s1
INCHIAUX=SSJXRCYFOOLEKV-RDTKOLQBSA-N
PUBMED=N/A
SUBMITUSER=mwang87
LIBRARYQUALITY=1
SPECTRUMID=CCMSLIB00000001756
SCANS=1
103.078217 580434.0 
105.04364 3326381.0 
106.2323 202407.0 
106.828537 1512585.0 
107.667725 2.0 
108.873474 349558.0 
109.37352 29321.0 
110.900146 1183114.0 
111.761169 77666.0 
112.286407 9001.0 
112.914185 1247471.0 
113.859512 34904.0 
115.199356 2014401.0 
115.936035 814843.0 
117.059082 3872892.0 
117.977402 152242.0 
119.015823 4368931.0 
119.980148 82146.0 
120.861771 1725957.0 
121.398224 11988.0 
122.103958 16244.0 
123.005157 1471591.0 
123.880966 338551.0 
124.897186 1689383.0 
125.444473 10766.0 
126.89653 674545.0 
127.925446 1374527.0 
128.529877 12713.0 
129.136627 3771612.0 
130.038818 535206.0 
131.038803 9686979.0 
131.682068 1400.0 
132.190262 399114.0 
132.95816 4092410.0 
133.944626 381667.0 
134.945679 1363131.0 
135.854874 10089.0 
137.015671 3815250.0 
138.173355 75164.0 
138.914932 8070425.0 
139.962631 8330023.0 
140.973846 1020364.0 
142.15123 916431.0 
143.016693 4913412.0 
143.975647 211135.0 
144.966705 8104968.0 
146.001938 427681.0 
146.935837 2102196.0 
148.218048 570934.0 
149.008209 1930054.0 
149.781723 181647.0 
150.966125 2640614.0 
152.013214 1273728.0 
152.938873 3190019.0 
154.004654 1141958.0 
154.70697 123011.0 
155.553314 266567.0 
156.217468 44409.0 
157.008469 7217448.0 
157.972672 29538.0 
158.965012 3385179.0 
159.825699 391606.0 
161.031128 1463764.0 
161.929733 160880.0 
162.942017 2388998.0 
164.016739 175948.0 
164.855408 5582143.0 
165.869659 1666845.0 
166.784119 1639557.0 
167.3116 11.0 
167.901062 460653.0 
168.966873 575308.0 
169.82814 20644.0 
171.012711 13580959.0 
171.999619 1037871.0 
173.02977 1921096.0 
173.865631 24776.0 
175.010742 1385117.0 
176.471161 437310.0 
177.062027 1144614.0 
178.088699 3208904.0 
178.920914 6075716.0 
179.951157 639811.0 
180.870209 650192.0 
182.286896 154978.0 
182.952866 293341.0 
183.964661 130127.0 
184.999481 5645277.0 
185.64592 11395.0 
186.328934 90145.0 
186.960129 1613066.0 
188.105087 460854.0 
188.98938 248939.0 
190.129974 470825.0 
191.002823 1673639.0 
191.993225 1071979.0 
192.863281 3275343.0 
193.669296 82421.0 
194.348892 1135178.0 
194.916763 1103333.0 
195.974197 229242.0 
197.143936 236990.0 
198.13562 236855.0 
198.936356 617866.0 
199.97142 307528.0 
201.076645 448901.0 
201.978561 248979.0 
202.902664 300241.0 
204.139252 967415.0 
204.989716 3623647.0 
206.095596 656919.0 
206.971313 400396.0 
208.087967 485227.0 
209.226639 28525.0 
210.993469 538630.0 
211.963593 232622.0 
213.012711 10589763.0 
214.106064 366718.0 
214.997269 74242.0 
216.004135 235378.0 
217.101562 174192.0 
217.983017 2024550.0 
219.178345 737264.0 
220.097382 2017499.0 
220.819199 323816.0 
222.129608 358271.0 
223.436172 338119.0 
224.115997 338299.0 
224.974594 152495.0 
226.0979 159156.0 
227.145462 78159.0 
228.074081 446778.0 
228.80928 178189.0 
229.981079 643027.0 
231.018448 202755.0 
231.988464 2544623.0 
233.068848 112744.0 
233.907349 1256539.0 
234.473785 16.0 
236.015076 191662.0 
236.994293 19498.0 
238.330795 114755.0 
240.123398 75846.0 
240.850693 34832.0 
241.921097 37452.0 
243.051483 146429.0 
244.237534 1373400.0 
244.957184 1049071.0 
246.126297 2536696.0 
246.967957 17568824.0 
247.977295 409993.0 
248.869873 53896.0 
249.842194 47547.0 
250.885315 109211.0 
252.183548 207638.0 
253.063889 6852.0 
254.174911 177690.0 
255.186371 33757.0 
257.771851 321142.0 
258.362396 520666.0 
259.117523 73686.0 
259.940765 3639455.0 
260.526825 240157.0 
261.997498 327247.0 
263.14917 9174.0 
265.896423 242477.0 
268.121887 25326.0 
269.046661 22117.0 
269.959747 237355.0 
271.078247 133053.0 
272.011383 550914.0 
272.917816 82540.0 
273.81665 818196.0 
274.395325 292148.0 
275.2323 77057.0 
276.006165 13359022.0 
276.798401 63964.0 
277.648346 417954.0 
278.977448 2588963.0 
279.58078 26.0 
281.970795 170254.0 
284.648987 62454.0 
286.13269 1596292.0 
287.145233 158206.0 
288.653809 124461.0 
290.034424 34940.0 
290.908447 74277.0 
292.094513 66420.0 
294.053497 1277239.0 
295.089264 377575.0 
295.701782 40218.0 
300.268982 386086.0 
302.03006 1052170.0 
303.983948 482793.0 
305.140533 76148.0 
308.961548 10011.0 
310.040405 201644.0 
311.190002 82343.0 
314.310364 20879.0 
318.096344 926780.0 
319.336884 121864.0 
325.295105 167127.0 
326.118469 1015310.0 
327.402863 886607.0 
328.070435 82638584.0 
329.170776 340618.0 
330.240204 329714.0 
341.19574 108818.0 
342.019958 58186.0 
342.863892 70624.0 
359.421265 63965.0 
360.105804 7688577.0 
361.121887 1284209.0 
361.710297 24.0 
END IONS

