BEGIN IONS
TITLE=Scan Number: 722
PEPMASS=898.63
CHARGE=1+
COMPOUNDNAME=Dereplicator Identification - E'Surugamide_D'
LIBRARYQUALITY=3
SMILES=CC[C@H](C)[C@@H]1NC(=O)[C@@H](CC(C)C)NC(=O)[C@@H](CC2=CC=CC=C2)NC(=O)[C@H](NC(=O)[C@@H](CCCCN)NC(=O)[C@H](NC(=O)[C@@H](NC(=O)[C@@H](C)NC1=O)C(C)C)[C@H](C)CC)[C@@H](C)CC
INCHIKEY=POJKUXRIPCIWMZ-ILKVNBHDSA-N
INCHI=
MSLEVEL=2
SOURCE_INSTRUMENT=LC-ESI-qTof
FILENAME=f.MSV000079140/ccms_peak/Dark/B2-2 dark/EA/B2-2DEA-F5.mzXML;
SEQ=*..*
NOTES=
IONMODE=Positive
ORGANISM=GNPS-LIBRARY
NAME=Dereplicator Identification - E'Surugamide_D' M+H
SPECTRUMID=CCMSLIB00000839203
ACTIVATION=CID
INSTRUMENT=ion trap
SCANS=722
157.130157 384.0 
171.111557 600.0 
185.128647 1960.0 
186.128601 496.0 
197.164108 1844.0 
199.181442 1432.0 
200.174896 368.0 
213.16098 628.0 
214.190948 348.0 
219.149124 1088.0 
225.19516 620.0 
227.177399 2592.0 
228.175018 1708.0 
231.153351 520.0 
233.167465 3476.0 
234.170395 648.0 
238.163055 688.0 
239.180298 828.0 
240.184052 400.0 
242.190033 4576.0 
243.185318 604.0 
247.146912 3372.0 
248.150665 552.0 
253.197769 1796.0 
254.196472 704.0 
256.174255 636.0 
261.16629 17012.0 
262.167908 2524.0 
263.173462 640.0 
267.244263 452.0 
270.185822 1360.0 
273.171295 392.0 
280.201233 376.0 
284.200867 7564.0 
285.208679 768.0 
287.183929 1036.0 
293.227966 396.0 
296.227997 504.0 
298.217896 11432.0 
299.222198 1900.0 
301.239105 916.0 
302.243195 340.0 
304.182373 480.0 
310.254028 456.0 
313.240631 388.0 
315.215057 1332.0 
318.188171 1616.0 
323.245361 496.0 
324.236786 468.0 
326.246155 1100.0 
327.249084 368.0 
329.229431 2144.0 
332.203522 3948.0 
333.20694 1016.0 
337.266144 1012.0 
338.258148 488.0 
339.279724 360.0 
340.267822 660.0 
341.246735 2252.0 
342.253052 344.0 
351.241119 464.0 
352.263916 1708.0 
355.273529 2052.0 
357.242126 376.0 
360.234833 5356.0 
361.245117 1260.0 
365.261932 628.0 
366.289246 1076.0 
367.278839 532.0 
369.28894 2756.0 
370.290283 820.0 
371.253204 652.0 
372.230865 512.0 
374.25235 13444.0 
375.252563 4700.0 
376.249756 972.0 
377.265564 332.0 
381.28891 744.0 
383.301208 2264.0 
384.281494 556.0 
386.245331 712.0 
389.257385 1908.0 
390.268707 416.0 
395.272644 452.0 
397.289001 4608.0 
398.296112 1216.0 
400.264526 2044.0 
401.275604 448.0 
403.268616 1400.0 
404.278381 344.0 
409.311981 484.0 
411.305542 2856.0 
412.300873 2944.0 
413.299377 760.0 
417.279358 2408.0 
418.278442 624.0 
422.283447 632.0 
425.283569 336.0 
426.320312 2176.0 
427.316254 480.0 
428.299438 904.0 
429.296234 524.0 
431.273285 4848.0 
432.280273 968.0 
436.331268 1412.0 
437.332947 516.0 
439.324341 364.0 
440.2948 1260.0 
442.310852 660.0 
443.310699 900.0 
445.291443 10816.0 
446.294556 2568.0 
447.301788 476.0 
452.364655 340.0 
454.332947 1944.0 
455.32309 700.0 
457.324951 616.0 
458.330017 340.0 
459.339752 728.0 
460.331635 684.0 
465.350006 1432.0 
468.365784 488.0 
473.314667 2472.0 
474.348969 1292.0 
475.348816 588.0 
480.364441 1164.0 
482.357452 732.0 
484.339661 560.0 
485.331604 636.0 
487.335114 2704.0 
488.328247 2076.0 
489.345734 648.0 
494.375061 548.0 
496.389343 548.0 
497.382996 988.0 
498.36554 512.0 
499.332062 1772.0 
500.348145 648.0 
502.346375 3132.0 
503.349182 920.0 
507.374176 2700.0 
508.376678 1168.0 
510.37442 1296.0 
511.38855 620.0 
512.334473 456.0 
513.353638 1232.0 
514.356323 444.0 
515.348022 392.0 
516.349548 1580.0 
517.351196 692.0 
521.393799 472.0 
522.402832 628.0 
524.388977 604.0 
525.38562 4476.0 
526.38623 1380.0 
527.388123 472.0 
528.376099 352.0 
530.36322 1664.0 
531.365295 1012.0 
535.366394 344.0 
539.401672 1040.0 
540.39978 428.0 
541.38031 352.0 
542.379333 388.0 
544.356689 5572.0 
545.368591 1416.0 
546.368042 352.0 
553.381836 516.0 
556.395386 780.0 
557.392151 444.0 
558.373291 4128.0 
559.376099 2180.0 
560.377197 708.0 
568.369995 432.0 
570.414246 480.0 
573.405151 1836.0 
574.409973 652.0 
575.429443 356.0 
583.377747 332.0 
584.397949 344.0 
586.408936 640.0 
587.426758 1264.0 
588.433533 540.0 
593.451843 1540.0 
594.45343 440.0 
598.409973 552.0 
601.41449 2712.0 
602.417114 1232.0 
610.473755 776.0 
612.418762 944.0 
613.443909 376.0 
615.433105 2716.0 
616.430298 1224.0 
620.45929 1428.0 
621.460632 412.0 
626.43573 388.0 
627.429626 588.0 
628.43634 340.0 
629.434204 1620.0 
630.440674 432.0 
638.473389 1752.0 
639.465576 1132.0 
641.456238 596.0 
643.441589 516.0 
644.457397 1200.0 
645.460571 516.0 
652.487671 744.0 
653.48877 400.0 
654.463745 392.0 
657.446716 4604.0 
658.454468 2004.0 
659.452209 620.0 
669.467957 572.0 
671.465027 796.0 
672.457275 4352.0 
673.463745 1620.0 
674.456238 472.0 
682.444458 452.0 
686.475708 3192.0 
687.485229 1360.0 
700.46759 488.0 
706.533813 464.0 
714.494385 2684.0 
715.505127 796.0 
716.516113 528.0 
723.547485 516.0 
725.497681 372.0 
728.513245 688.0 
729.511414 356.0 
733.542664 668.0 
734.547058 380.0 
740.522949 772.0 
742.533875 1168.0 
751.554932 1084.0 
752.540405 584.0 
757.542236 1072.0 
758.548401 360.0 
767.534973 524.0 
770.529358 4872.0 
771.535583 1900.0 
772.537598 440.0 
785.543701 4976.0 
786.548218 1748.0 
787.554871 544.0 
799.562622 1232.0 
800.570984 808.0 
813.539978 1308.0 
814.545349 864.0 
827.56958 572.0 
828.580566 420.0 
853.617249 640.0 
854.614685 468.0 
855.591675 344.0 
870.632202 3008.0 
871.632812 1604.0 
872.63739 448.0 
880.621155 1968.0 
881.61731 932.0 
882.626953 492.0 
897.61615 520.0 
898.632202 175932.0 
899.067566 520.0 
899.634827 117124.0 
900.63678 28904.0 
901.635315 4824.0 
902.633118 404.0 
END IONS

