BEGIN IONS
TITLE=Scan Number: 729
PEPMASS=912.65002
CHARGE=1+
COMPOUNDNAME=Dereplicator Identification - E'Surugamide_A'
LIBRARYQUALITY=3
SMILES=CC[C@H](C)[C@@H]1NC(=O)[C@@H](CC(C)C)NC(=O)[C@@H](CC2=CC=CC=C2)NC(=O)[C@H](NC(=O)[C@@H](CCCCN)NC(=O)[C@H](NC(=O)[C@@H](NC(=O)[C@@H](C)NC1=O)[C@@H](C)CC)[C@H](C)CC)C(C)CC
INCHIKEY=NPYICXUUGUJPMM-DAOYTBFHSA-N
INCHI=
MSLEVEL=2
SOURCE_INSTRUMENT=LC-ESI-qTof
FILENAME=f.MSV000079140/ccms_peak/Dark/A1B2 DARK ETOAC ACN/A1B2-DEA-E8.mzXML;
SEQ=*..*
NOTES=
IONMODE=Positive
ORGANISM=GNPS-LIBRARY
NAME=Dereplicator Identification - E'Surugamide_A' M+H
SPECTRUMID=CCMSLIB00000839206
ACTIVATION=CID
INSTRUMENT=ion trap
SCANS=729
129.107269 444.0 
185.135666 1560.0 
197.169113 484.0 
199.18541 1656.0 
214.199295 440.0 
224.180084 336.0 
225.192429 528.0 
227.183197 2192.0 
231.155411 460.0 
233.172623 2020.0 
234.177994 520.0 
242.1922 2936.0 
243.19313 836.0 
244.210709 444.0 
252.180344 508.0 
253.20018 2140.0 
254.204071 356.0 
261.167816 9924.0 
262.172577 1648.0 
263.179077 404.0 
267.252319 644.0 
270.193787 1328.0 
278.196381 344.0 
285.235962 640.0 
287.179047 812.0 
288.192261 332.0 
295.243774 416.0 
298.219574 10928.0 
299.222992 2792.0 
301.240051 496.0 
310.26062 388.0 
313.230011 680.0 
327.288086 628.0 
329.231354 1656.0 
332.207397 3208.0 
333.206146 592.0 
337.262695 584.0 
338.255829 920.0 
340.269073 1284.0 
341.225739 1264.0 
355.276398 1620.0 
361.259247 420.0 
365.261536 896.0 
366.283325 2060.0 
367.285004 504.0 
371.253876 408.0 
372.259613 356.0 
374.252258 12152.0 
375.253418 3284.0 
376.261078 676.0 
381.294006 332.0 
383.303192 1688.0 
384.302673 632.0 
389.261566 940.0 
398.316162 520.0 
400.268677 1300.0 
401.270599 468.0 
408.300476 432.0 
409.292084 572.0 
411.302307 4924.0 
412.304718 868.0 
417.280731 1488.0 
421.295654 396.0 
426.315735 2912.0 
427.314819 716.0 
432.311401 372.0 
442.31073 1084.0 
443.317993 684.0 
445.290771 7924.0 
446.291321 2028.0 
447.298828 532.0 
450.348145 572.0 
451.35849 404.0 
454.312256 708.0 
457.321167 380.0 
459.34317 1028.0 
460.331085 680.0 
468.361023 1596.0 
474.354767 1332.0 
475.359406 644.0 
475.80069 380.0 
484.340637 340.0 
485.331848 796.0 
487.335236 2572.0 
488.33609 1032.0 
494.38031 768.0 
496.36322 624.0 
502.345673 1868.0 
503.348236 816.0 
511.402222 648.0 
513.349365 1488.0 
514.353882 752.0 
515.342102 456.0 
521.385681 1196.0 
522.386658 600.0 
524.384094 1400.0 
528.366516 492.0 
530.369507 2048.0 
531.368225 752.0 
539.399963 2704.0 
540.403259 1044.0 
545.393677 556.0 
555.39325 416.0 
558.375366 3404.0 
559.37677 1160.0 
560.381653 436.0 
570.413513 444.0 
573.388 808.0 
574.384888 464.0 
587.436646 1076.0 
588.443237 600.0 
597.429932 528.0 
600.414307 656.0 
601.388916 680.0 
607.461121 604.0 
615.43457 2512.0 
616.431763 660.0 
624.476074 548.0 
625.425354 524.0 
626.432251 1132.0 
627.442139 500.0 
634.472473 744.0 
635.476196 412.0 
641.46051 436.0 
642.446899 392.0 
643.451599 988.0 
644.44342 464.0 
652.48761 1952.0 
653.49054 676.0 
658.476746 1064.0 
671.461121 2656.0 
672.461853 1668.0 
686.472046 3920.0 
687.473022 1876.0 
688.479858 664.0 
714.464172 632.0 
720.549194 348.0 
728.521973 1664.0 
729.521667 444.0 
747.553894 376.0 
754.541504 804.0 
755.540222 444.0 
756.539368 412.0 
765.576355 680.0 
766.570007 536.0 
771.558289 464.0 
772.570435 368.0 
781.544556 396.0 
784.546814 2156.0 
785.555664 1164.0 
786.541077 652.0 
799.558105 3288.0 
800.567322 1132.0 
801.558411 472.0 
827.557434 856.0 
867.632874 408.0 
884.654114 1756.0 
885.653076 1224.0 
894.644226 632.0 
895.639771 360.0 
896.62207 508.0 
912.649719 118372.0 
913.652527 63240.0 
914.655396 13884.0 
915.65332 3304.0 
END IONS

