BEGIN IONS
PEPMASS=861.58
CHARGE=1+
MSLEVEL=2
SOURCE_INSTRUMENT=LC-ESI-qTof
FILENAME=f.arihiro1013/purecompounds_mgfdata/201909_kurahyne.mgf;
SEQ=*..*
IONMODE=Positive
ORGANISM=GNPS-LIBRARY
NAME=Kurahyne M+Na
PI=Gerwick
DATACOLLECTOR=Arihiro Iwasaki
SMILES=C#CCCC/C=C(C(N([C@@](C(N([C@@](C(N([C@H](C(N([C@H](C(N1[C@@H](CCC1)C(N2[C@@H](CCC2)C(CC)=O)=O)=O)C(C)C)C)=O)C(C)C)C)=O)([H])[C@@H](C)CC)C)=O)([H])[C@@H](C)CC)C)=O)\C
INCHI=InChI=1S/C47H78N6O7/c1-16-20-21-22-25-34(11)42(55)50(14)40(32(9)17-2)46(59)51(15)41(33(10)18-3)45(58)48(12)38(30(5)6)44(57)49(13)39(31(7)8)47(60)53-29-24-27-36(53)43(56)52-28-23-26-35(52)37(54)19-4/h1,25,30-33,35-36,38-41H,17-24,26-29H2,2-15H3/b34-25+/t32-,33-,35-,36-,38-,39-,40-,41-/m0/s1
INCHIAUX=
PUBMED=
SUBMITUSER=arihiro1013
LIBRARYQUALITY=3
SPECTRUMID=CCMSLIB00004722207
SCANS=686
706.111816 1196.0 
745.208374 3385.0 
1006.70752 75999.0 
1007.778809 156253.0 
1008.589478 146.0 
END IONS

