BEGIN IONS
PEPMASS=767.2
CHARGE=0+
MSLEVEL=2
SOURCE_INSTRUMENT=LC-ESI-qTof
FILENAME=20130722_Ger_Pluto_Veraguamide_A_MH767.2-qb.1.1..mgf
SEQ=*..*
IONMODE=Positive
ORGANISM=GNPS-LIBRARY
NAME=Veraguamide_A M+H
PI=Gerwick
DATACOLLECTOR=Pluto
SMILES=CC[C@H](C)[C@H]1C(=O)N2CCC[C@H]2C(=O)N([C@H](C(=O)O[C@@H]([C@@H](C(=O)N[C@H](C(=O)N([C@H](C(=O)O1)C(C)C)C)C(C)C)C)CCCC#CBr)C(C)C)C
INCHI=InChI=1S/C37H59BrN4O8/c1-12-24(8)31-35(46)42-20-16-17-26(42)33(44)40(10)29(22(4)5)36(47)49-27(18-14-13-15-19-38)25(9)32(43)39-28(21(2)3)34(45)41(11)30(23(6)7)37(48)50-31/h21-31H,12-14,16-18,20H2,1-11H3,(H,39,43)/t24-,25-,26-,27+,28-,29-,30-,31-/m0/s1
INCHIAUX=N/A
PUBMED=N/A
SUBMITUSER=mwang87
LIBRARYQUALITY=1
SPECTRUMID=CCMSLIB00000001814
SCANS=1
228.149689 4392.0 
229.073654 3102.0 
239.187897 1749.0 
243.315491 1106.0 
245.02774 1811.0 
246.183105 1293.0 
254.874023 288.0 
255.977356 554.0 
266.022949 948.0 
282.14856 185.0 
283.858429 5496.0 
286.04895 143.0 
296.454956 4318.0 
297.102448 50086.0 
307.158478 5331.0 
311.769867 4139.0 
316.946167 3510.0 
323.166534 2571.0 
325.006836 273512.0 
325.978851 547.0 
329.757751 272.0 
340.784546 395.0 
342.988831 42958.0 
345.237671 280.0 
356.116089 153.0 
396.957275 2680.0 
406.918152 1548.0 
409.271484 2381.0 
410.232208 6934.0 
414.928345 1049.0 
425.062469 3677.0 
426.894043 1564.0 
436.255981 5253.0 
437.297485 937.0 
438.106018 275184.0 
438.799957 1.0 
440.207458 4078.0 
442.506836 9521.0 
443.042664 8672.0 
455.482727 2881.0 
456.140015 416280.0 
456.95993 2.0 
460.343689 755.0 
460.983429 1754.0 
473.025635 366.0 
491.982117 2856.0 
512.083984 3877.0 
512.893433 2228.0 
522.860352 3124.0 
539.088013 828.0 
539.992188 12396.0 
541.040466 9088.0 
545.813232 719.0 
546.637207 1237.0 
554.25415 1184.0 
554.891113 1933.0 
556.23175 17678.0 
563.333252 674.0 
568.01709 708.0 
574.109314 74228.0 
594.008545 1972.0 
597.500366 1461.0 
613.603149 1300.0 
614.275024 218.0 
625.947388 41503.0 
636.105896 10712.0 
653.444092 326.0 
654.025818 151752.0 
654.82666 1.0 
667.134705 13400.0 
670.088074 2738.0 
681.76416 12530.0 
682.5896 541.0 
688.018066 654.0 
698.658752 1774.0 
731.044067 1549.0 
739.160767 461813.0 
739.748047 156.0 
748.405457 1942.0 
749.200378 30632.0 
END IONS

