BEGIN IONS
PEPMASS=840.35
CHARGE=1+
MSLEVEL=2
SOURCE_INSTRUMENT=LC-ESI-qTof
FILENAME=f.evgenia_glukhov/Standards/2223H4-6-Apratoxin_A.mzXML;
SEQ=*..*
IONMODE=Positive
ORGANISM=GNPS-LIBRARY
NAME=Apratoxin A M+H
PI=W. Gerwick
DATACOLLECTOR=Daojing Zhang
SMILES=[H]N1[C@@H](Cc2ccc(OC)cc2)C(=O)N(C)[C@@H](C)C(=O)N(C)[C@@H]([C@@H](C)CC)C(=O)N2CCC[C@H]2C(=O)O[C@@H](C[C@@H](C)C[C@H](O)[C@H](C)C2=N[C@H](CS2)\C=C(C)\C1=O)C(C)(C)C
INCHI=
INCHIAUX=
PUBMED=
SUBMITUSER=evgenia_glukhov
LIBRARYQUALITY=3
SPECTRUMID=CCMSLIB00000478598
SCANS=750
269.390991 12658.0 
327.942993 36220.0 
329.352661 5806.0 
330.968201 56270.0 
332.113647 66506.0 
345.300415 14585.0 
346.168823 7077.0 
356.958191 22724.0 
359.026062 156799.0 
360.036316 115428.0 
361.018066 9972.0 
372.976074 7108.0 
386.997498 11853.0 
390.126343 34322.0 
391.30249 9890.0 
397.206177 437168.0 
398.169739 360382.0 
399.372559 15052.0 
433.88501 13476.0 
443.995728 472415.0 
445.020935 635612.0 
446.000977 42755.0 
458.248779 8209.0 
464.297852 59595.0 
465.393738 22578.0 
468.167358 9061.0 
482.124329 882069.0 
483.148804 978673.0 
484.248657 29573.0 
493.076904 5273.0 
495.028809 15562.0 
496.12262 68283.0 
496.915283 8345.0 
513.166016 58726.0 
514.088623 44622.0 
515.000488 14804.0 
516.569458 41574.0 
517.50415 4728.0 
521.189453 3480.0 
526.824463 4287.0 
537.06543 29219.0 
542.185059 10063.0 
544.72998 5731.0 
561.184082 8241.0 
571.11792 890308.0 
572.069824 2206711.0 
573.087158 407326.0 
573.888916 3.0 
579.920654 18146.0 
581.059814 73961.0 
582.054443 46075.0 
598.176758 80634.0 
599.139282 172181.0 
600.137329 34197.0 
610.155762 59250.0 
611.179321 136559.0 
612.027832 38063.0 
628.118408 47907.0 
629.16748 86576.0 
630.079712 8083.0 
642.156616 10765.0 
648.183594 7524.0 
707.046997 2992.0 
708.237061 152928.0 
708.952271 7.0 
714.144043 27983.0 
725.146484 79449.0 
726.19751 457395.0 
727.296265 31040.0 
735.829224 30454.0 
738.25647 56650.0 
739.353882 19833.0 
743.28186 3502.0 
756.581055 18934.0 
766.413574 14018.0 
779.201172 59048.0 
779.866577 1.0 
797.167114 27171.0 
813.244019 19864.0 
814.56543 10709.0 
823.215088 3364877.0 
824.272583 531547.0 
825.013184 5.0 
END IONS

