BEGIN IONS
PEPMASS=985.54
CHARGE=1+
MSLEVEL=2
SOURCE_INSTRUMENT=LC-ESI-Ion Trap
FILENAME=f.arihiro1013/purecompounds_2ndconversion/201909_maedamide (2)..mzXML;
SEQ=*..*
IONMODE=Positive
ORGANISM=GNPS-LIBRARY
NAME=Maedamide M+Na
PI=Gerwick
DATACOLLECTOR=Arihiro Iwasaki
SMILES=O[C@@H](CC(N[C@]([C@@H](C)CC)([H])C(NCC(N(C)[C@H](CC1=CC=CC=C1)C(N2[C@H](C(OC)=O)CCC2)=O)=O)=O)=O)[C@@H](NC([C@H]3N(C([C@@](OC([C@@H](O)C(C)C)=O)([H])[C@@H](C)CC)=O)CCC3)=O)CC4=CC=CC=C4
INCHI=InChI=1S/C51H74N6O12/c1-9-32(5)43(47(63)52-30-42(60)55(7)39(28-35-21-15-12-16-22-35)48(64)57-26-18-24-38(57)50(66)68-8)54-41(59)29-40(58)36(27-34-19-13-11-14-20-34)53-46(62)37-23-17-25-56(37)49(65)45(33(6)10-2)69-51(67)44(61)31(3)4/h11-16,19-22,31-33,36-40,43-45,58,61H,9-10,17-18,23-30H2,1-8H3,(H,52,63)(H,53,62)(H,54,59)/t32-,33-,36-,37-,38-,39+,40-,43-,44-,45+/m0/s1
INCHIAUX=
PUBMED=
SUBMITUSER=arihiro1013
LIBRARYQUALITY=3
SPECTRUMID=CCMSLIB00004722213
SCANS=599
313.144592 618823.0 
313.798706 3.0 
350.997742 59096.0 
356.87439 149373.0 
363.136658 64844.0 
365.384033 579452.0 
369.863098 135384.0 
370.573425 278489.0 
377.247559 174746.0 
378.350342 26996.0 
383.238953 186774.0 
387.245178 84085.0 
394.03418 448478.0 
396.039917 214853.0 
405.257019 155392.0 
421.15979 86059.0 
423.140137 165423.0 
449.951233 278404.0 
451.685547 78922.0 
479.691895 22745.0 
481.000122 315306.0 
481.676392 11.0 
483.291504 11184020.0 
484.150513 25.0 
507.214722 9220774.0 
507.84668 3197.0 
509.305115 172635.0 
524.634521 1680869.0 
525.32959 28179536.0 
526.047852 243.0 
537.816406 138767.0 
541.95105 167742.0 
542.849365 197556.0 
543.589355 251780.0 
544.281982 59.0 
582.266479 21849.0 
608.165039 222661.0 
610.267944 3933577.0 
611.023315 147.0 
637.054932 575500.0 
638.317871 1485526.0 
639.194702 20.0 
640.563721 50012.0 
651.239746 873348.0 
652.066895 7.0 
656.31604 6437644.0 
667.385254 3847832.0 
668.25293 36.0 
674.305298 1344534.0 
675.141357 24.0 
683.961426 64500.0 
690.889893 566664.0 
691.532104 2.0 
695.093628 4163191.0 
695.965332 43.0 
697.288086 64435.0 
726.210205 85269.0 
769.339722 952006.0 
770.220093 14.0 
780.840454 51761.0 
781.534546 69754.0 
795.711182 182880.0 
831.564453 81158.0 
837.812012 108982.0 
839.581421 109389.0 
848.894287 92488.0 
853.34314 511979.0 
854.049438 34.0 
856.252441 2675259.0 
856.899292 63.0 
865.378296 105735.0 
867.463013 10080050.0 
868.395996 4.0 
871.417847 488204.0 
884.988037 549273.0 
885.590698 8876254.0 
886.370605 11.0 
894.685791 83659.0 
949.038452 685642.0 
949.697998 26.0 
952.931885 256733.0 
953.838989 44668.0 
966.668457 27571.0 
967.60376 6870619.0 
968.340088 4319.0 
984.870117 1959225.0 
985.500732 37422216.0 
986.541016 8.0 
END IONS

