BEGIN IONS
PEPMASS=720.45
CHARGE=1+
MSLEVEL=2
SOURCE_INSTRUMENT=LC-ESI-qTof
FILENAME=f.evgenia_glukhov/Standards/2224D3-3-3-Lyngbyapeptin_A.mzXML;
SEQ=*..*
IONMODE=Positive
ORGANISM=GNPS-LIBRARY
NAME=Lyngbyapeptin A M+Na
PI=W. Gerwick
DATACOLLECTOR=Daojing Zhang
SMILES=CCC(C)C(C(=O)N1CCCC1C2=NC=CS2)N(C)C(=O)C(CC(C)C)N(C)C(=O)C(CC3=CC=C(C=C3)OC)N(C)C(=O)C=C(C)OC
INCHI=
INCHIAUX=
PUBMED=
SUBMITUSER=evgenia_glukhov
LIBRARYQUALITY=3
SPECTRUMID=CCMSLIB00000478601
SCANS=251
170.105499 1388.0 
243.002777 1135.0 
252.605377 2350.0 
261.887329 6421.0 
264.253967 4562.0 
266.157349 1193.0 
275.043823 2656.0 
279.089844 548.0 
296.141418 4058.0 
306.184204 2209.0 
307.142212 6486.0 
308.047241 6567.0 
314.103394 889.0 
320.052246 1141.0 
322.133789 2752.0 
330.810059 1125.0 
332.03949 7990.0 
333.106079 810.0 
335.019409 960.0 
348.034546 1316.0 
352.488953 3097.0 
358.904785 4228.0 
360.161682 3557.0 
367.005249 555.0 
368.553223 1572.0 
376.05249 5759.0 
377.066406 5811.0 
384.018555 2210.0 
384.984253 1818.0 
390.091614 5377.0 
391.203308 9765.0 
393.20166 4172.0 
397.053833 1668.0 
404.09552 63282.0 
405.076294 15190.0 
407.095215 2024.0 
416.857117 2615.0 
419.948425 15065.0 
421.093933 2734.0 
428.175415 584.0 
432.108337 3976.0 
433.10553 3883.0 
435.172791 78545.0 
436.096619 5860.0 
438.188416 651.0 
445.101379 1791.0 
445.887756 1395.0 
450.377136 1975.0 
459.801453 4039.0 
461.277588 2289.0 
463.153748 2921.0 
466.268494 2492.0 
467.112915 8829.0 
468.046387 2564.0 
473.198547 2590.0 
479.145996 21788.0 
480.372986 2455.0 
487.985718 994.0 
492.145203 3084.0 
493.948608 3156.0 
496.643799 2629.0 
500.154419 1341.0 
500.834778 1672.0 
502.109253 7690.0 
504.233154 931.0 
508.944092 1168.0 
515.932861 6151.0 
517.083252 3408.0 
519.162598 16700.0 
522.218994 31939.0 
523.142822 262805.0 
524.209717 43999.0 
528.421631 2422.0 
531.131348 2506.0 
537.10791 3248.0 
544.292236 26588.0 
545.261108 2696.0 
546.560913 6505.0 
547.169434 72133.0 
548.246094 15419.0 
558.99292 1377.0 
559.893066 2100.0 
563.122559 1452.0 
563.789795 2897.0 
565.108643 93972.0 
566.169922 23445.0 
567.531006 448.0 
576.181152 7814.0 
578.231812 16399.0 
579.442017 5342.0 
594.24585 142997.0 
595.311035 2807.0 
606.136963 4449.0 
607.593262 5371.0 
622.418335 5089.0 
632.090088 25921.0 
633.323486 7254.0 
648.292725 1381.0 
649.319702 1429.0 
650.298828 768115.0 
651.265869 211619.0 
END IONS

