BEGIN IONS
PEPMASS=630.3
CHARGE=0+
MSLEVEL=2
SOURCE_INSTRUMENT=LC-ESI-Ion Trap
FILENAME=20130604_Ger_Jenia_Malyngamide_J_MNa630.3-qb.1.1..mgf
SEQ=*..*
IONMODE=Positive
ORGANISM=GNPS-LIBRARY
NAME=Malyngamide J M+Na
PI=Gerwick
DATACOLLECTOR=Jenia
SMILES=CCCCCCC[C@@H](C\C=C\CCC(=O)NCCC(=C)[C@]12O[C@H]1[C@H](OC1OCC(OC)C(O)C1OC)C=C(C)C2=O)OC
INCHI=InChI=1S/C33H53NO9/c1-7-8-9-10-12-15-24(38-4)16-13-11-14-17-27(35)34-19-18-23(3)33-30(37)22(2)20-25(31(33)43-33)42-32-29(40-6)28(36)26(39-5)21-41-32/h11,13,20,24-26,28-29,31-32,36H,3,7-10,12,14-19,21H2,1-2,4-6H3,(H,34,35)/b13-11+/t24-,25+,26?,28?,29?,31-,32?,33+/m0/s1
INCHIAUX=UZMVEOVJASEKLP-BYPNWZLWSA-N
PUBMED=N/A
SUBMITUSER=mwang87
LIBRARYQUALITY=1
SPECTRUMID=CCMSLIB00000001786
SCANS=1
184.72998 392331.0 
201.538635 106395.0 
213.706512 77899.0 
214.946594 289661.0 
217.337006 21319.0 
225.6091 64267.0 
227.926666 28425.0 
228.691284 171661.0 
231.827209 146682.0 
242.847229 63684.0 
253.377319 7003.0 
254.361282 31721.0 
255.091766 69692.0 
255.718292 753083.0 
256.973267 3844.0 
259.967957 771553.0 
260.375641 2943.0 
271.046997 13704.0 
272.424194 27806.0 
275.976013 46685.0 
276.577759 27921.0 
277.978088 146774.0 
278.590088 11656.0 
279.233337 143097.0 
281.875671 3714.0 
287.16272 438719.0 
289.79834 650.0 
290.488098 125515.0 
291.088623 83256.0 
291.772095 10625.0 
295.258972 17027.0 
295.891479 81620.0 
298.04126 128226.0 
298.724426 2494.0 
300.247498 302277.0 
300.99173 460432.0 
304.28009 13575.0 
305.693604 175702.0 
308.056244 153044.0 
309.440552 67304.0 
310.024048 4254.0 
310.543335 106607.0 
314.891663 55604.0 
315.985748 125817.0 
316.705566 8397.0 
318.526123 69871.0 
319.106812 5528.0 
323.628479 41305.0 
326.442871 36165.0 
330.305664 130673.0 
333.352417 18616.0 
334.886475 2130.0 
339.350952 30969.0 
341.536865 166663.0 
342.729248 47324.0 
344.426697 74542.0 
346.808167 32902.0 
349.637329 115110.0 
351.399292 157941.0 
352.164551 4380.0 
355.13092 8741.0 
358.284058 310762.0 
359.10965 48816.0 
359.906372 11794.0 
360.482208 119899.0 
361.301086 98445.0 
370.361115 38665.0 
370.956482 22172.0 
372.039062 28070.0 
372.960938 100180.0 
374.164978 52590.0 
375.098297 1506469.0 
376.154633 317887.0 
382.157593 83296.0 
384.233063 48684.0 
386.141235 11963.0 
389.286987 3078.0 
390.927368 361097.0 
392.331909 45758.0 
393.044434 4050.0 
393.891235 90146.0 
394.80542 23065.0 
395.605469 3.0 
398.196808 447652.0 
405.883179 56940.0 
407.869507 1487.0 
409.305176 71367.0 
410.466766 265195.0 
412.351868 69548.0 
418.457214 3017.0 
422.198303 1322.0 
423.449951 17618.0 
424.179199 1895960.0 
425.290588 1749759.0 
426.28775 9014728.0 
427.509674 192503.0 
428.399017 33916.0 
429.192261 366693.0 
434.450134 110773.0 
436.25946 53926.0 
438.262329 20797.0 
440.19873 92359.0 
441.252655 872591.0 
442.272308 1794287.0 
443.361328 4694.0 
452.245758 2820831.0 
453.306732 175611.0 
454.216492 3920506.0 
455.005768 56307.0 
460.002563 8533.0 
468.212769 360361.0 
469.078552 1315695.0 
469.624023 245422.0 
470.219849 27813552.0 
471.008575 224885.0 
471.733276 2.0 
472.995239 20186.0 
474.221008 71136.0 
478.628235 36035.0 
481.880249 22223.0 
490.015594 231215.0 
490.896912 172684.0 
492.537292 7758.0 
498.28006 332599.0 
504.144012 121669.0 
506.326782 67335.0 
510.286255 13015.0 
520.225952 53844.0 
526.20874 395402.0 
526.973328 1.0 
528.103821 151345.0 
530.725342 111417.0 
534.321045 43341.0 
536.557617 87339.0 
538.059387 499011.0 
540.507202 3349.0 
548.075439 3210.0 
549.221191 468210.0 
549.765991 39.0 
556.262329 2495587.0 
556.914368 29.0 
566.12915 23743.0 
569.876221 19186.0 
580.048828 84579.0 
584.155579 135615.0 
586.299072 11834.0 
588.296143 1341029.0 
589.415283 2664.0 
598.226501 194086.0 
599.039917 1.0 
600.177734 2257.0 
602.25177 27626280.0 
603.293762 343202.0 
604.228516 1.0 
612.074402 454268.0 
630.295288 35241328.0 
631.261292 126729.0 
END IONS

