BEGIN IONS
PEPMASS=500.329
CHARGE=1+
MSLEVEL=2
SOURCE_INSTRUMENT=LC-ESI-qTof
FILENAME=2F1_CarmaphycinAenone_analogue_MH_500.mzXML
SEQ=*..*
IONMODE=Positive
ORGANISM=GNPS-LIBRARY
NAME=Carmaphycin A enone analogue M+H
PI=Dorrestein/Gerwick
DATACOLLECTOR=Luzzatto/Garg
SMILES=CC(C([C@H](CC(C)C)NC([C@H](CCS(C)=O)NC([C@H](C(C)C)NC(CCCCC)=O)=O)=O)=O)=C
INCHI=N/A
INCHIAUX=N/A
PUBMED=N/A
SUBMITUSER=tal_lk
LIBRARYQUALITY=2
SPECTRUMID=CCMSLIB00000070293
SCANS=1148
95.999107 236.0 
96.931168 228.0 
98.056763 196.0 
98.090256 188.0 
98.10405 308.0 
99.08387 340.0 
99.575607 260.0 
100.042686 252.0 
100.21389 200.0 
100.472969 268.0 
106.093269 164.0 
106.158859 168.0 
106.575378 304.0 
107.318108 188.0 
107.53875 212.0 
107.743095 184.0 
108.475372 164.0 
108.539612 208.0 
109.634666 260.0 
110.170685 228.0 
110.34198 220.0 
110.741501 176.0 
111.118668 224.0 
112.819641 168.0 
112.952812 188.0 
113.145302 224.0 
113.666489 200.0 
115.801743 232.0 
116.279655 224.0 
116.363335 236.0 
116.638199 232.0 
116.672577 180.0 
116.894028 312.0 
117.098457 212.0 
117.152283 180.0 
117.47982 180.0 
117.91581 176.0 
119.593857 192.0 
120.048386 612.0 
120.714767 228.0 
121.064758 168.0 
121.103271 212.0 
121.814552 196.0 
121.968307 180.0 
122.271706 220.0 
123.590782 172.0 
125.863739 228.0 
126.087799 236.0 
126.905991 184.0 
127.786057 284.0 
128.106506 180.0 
128.193436 272.0 
128.432327 252.0 
130.555878 188.0 
131.131622 212.0 
131.768021 196.0 
132.236603 164.0 
133.769257 208.0 
133.819885 172.0 
135.058609 172.0 
136.0755 204.0 
136.1129 256.0 
136.523788 180.0 
136.926224 220.0 
137.077591 184.0 
137.102875 204.0 
137.501846 204.0 
138.055298 204.0 
138.087616 300.0 
138.127487 1368.0 
138.801361 256.0 
139.078705 208.0 
139.126144 228.0 
139.322815 224.0 
140.014069 220.0 
140.070572 236.0 
140.103546 204.0 
140.14357 256.0 
141.006897 180.0 
141.098038 204.0 
141.792313 204.0 
143.093552 164.0 
143.722473 188.0 
143.989105 188.0 
144.023148 200.0 
144.520187 212.0 
144.759445 184.0 
144.864792 244.0 
145.018082 248.0 
145.25296 236.0 
145.904114 240.0 
146.064529 280.0 
146.389313 240.0 
147.617081 224.0 
147.675323 212.0 
147.779068 180.0 
147.953262 196.0 
148.045227 276.0 
148.071854 176.0 
149.340683 188.0 
150.127014 380.0 
150.441635 196.0 
150.876297 208.0 
151.121094 268.0 
151.142776 196.0 
151.852905 232.0 
153.098358 188.0 
153.136719 228.0 
153.334824 236.0 
153.514709 216.0 
153.93898 220.0 
154.074081 228.0 
154.121887 276.0 
154.15596 248.0 
154.606171 164.0 
155.080154 164.0 
155.11702 164.0 
155.349182 192.0 
155.438461 264.0 
155.974686 232.0 
156.100159 464.0 
156.137314 3400.0 
156.800674 184.0 
156.84552 224.0 
156.882889 176.0 
157.139984 340.0 
158.03125 204.0 
158.246399 184.0 
158.634552 188.0 
159.492676 284.0 
160.532043 176.0 
161.114838 208.0 
161.294189 164.0 
162.093597 244.0 
163.288803 188.0 
163.594009 188.0 
164.07103 784.0 
164.140518 344.0 
165.098175 204.0 
165.139038 888.0 
165.71286 248.0 
166.05365 180.0 
166.086823 1420.0 
166.122986 1072.0 
166.810791 228.0 
167.08812 472.0 
168.137299 416.0 
168.201218 164.0 
169.090561 212.0 
169.13501 472.0 
170.153275 6380.0 
171.156555 620.0 
172.06488 176.0 
173.126221 348.0 
173.264984 192.0 
173.414276 244.0 
174.650436 240.0 
175.368942 192.0 
175.416367 224.0 
176.107407 164.0 
176.148087 276.0 
176.757477 236.0 
177.102249 168.0 
178.281631 192.0 
179.116714 192.0 
179.988434 168.0 
180.111237 204.0 
180.386353 164.0 
181.105835 196.0 
181.14064 164.0 
181.269196 208.0 
181.706055 200.0 
181.932083 252.0 
182.073639 208.0 
183.11055 580.0 
183.155762 616.0 
183.909073 184.0 
184.095276 260.0 
184.135773 260.0 
184.171982 232.0 
185.455551 176.0 
185.59375 184.0 
185.984238 176.0 
186.40773 172.0 
187.03299 176.0 
189.136612 168.0 
189.98848 172.0 
190.389053 204.0 
190.6362 164.0 
191.153549 524.0 
192.136658 868.0 
192.690887 192.0 
192.715134 204.0 
193.04454 208.0 
193.133591 4304.0 
193.170181 2592.0 
194.117401 2072.0 
194.174728 376.0 
194.30983 192.0 
195.120789 360.0 
195.149216 256.0 
195.865936 184.0 
195.90213 240.0 
196.151337 212.0 
196.665848 196.0 
197.166168 204.0 
197.587616 164.0 
198.077316 168.0 
198.148666 8692.0 
198.214539 180.0 
199.038864 188.0 
199.086594 224.0 
199.152161 488.0 
199.263474 236.0 
200.047775 200.0 
200.160339 164.0 
201.110016 240.0 
201.578629 192.0 
202.095856 212.0 
203.024582 208.0 
203.098297 204.0 
203.149338 236.0 
204.141403 592.0 
204.32782 184.0 
204.905518 164.0 
205.141373 196.0 
206.780807 252.0 
207.147888 680.0 
207.866486 192.0 
208.110367 184.0 
208.156342 204.0 
209.161255 340.0 
209.467224 252.0 
210.16748 172.0 
211.142441 1044.0 
212.101425 172.0 
212.148407 332.0 
213.067352 188.0 
213.153503 396.0 
214.795822 260.0 
215.160446 188.0 
216.106674 168.0 
216.335159 216.0 
216.812393 192.0 
216.93425 196.0 
218.247238 224.0 
218.750107 200.0 
219.14476 496.0 
219.221161 236.0 
220.150665 168.0 
220.468933 240.0 
220.584152 204.0 
220.782166 184.0 
220.87973 188.0 
221.044327 280.0 
221.165451 12560.0 
221.711349 208.0 
222.166336 1936.0 
222.213501 232.0 
222.550491 176.0 
223.158508 292.0 
223.183105 228.0 
223.670792 168.0 
225.011719 196.0 
225.674713 196.0 
226.78154 176.0 
226.949692 204.0 
227.066589 200.0 
227.2435 232.0 
228.396591 168.0 
229.106705 212.0 
229.188019 184.0 
229.763641 172.0 
230.083405 376.0 
230.280701 208.0 
231.084839 180.0 
231.346542 224.0 
232.076385 232.0 
232.567627 196.0 
233.114365 200.0 
233.378403 180.0 
233.658096 208.0 
235.153656 232.0 
235.179153 212.0 
235.352005 196.0 
235.388626 168.0 
235.865036 196.0 
235.978088 184.0 
237.162354 288.0 
238.07312 208.0 
238.103821 180.0 
238.158722 204.0 
238.346405 228.0 
239.047195 244.0 
239.174652 7764.0 
240.177246 1220.0 
243.419479 232.0 
243.85733 204.0 
244.703094 188.0 
247.108459 584.0 
248.119598 168.0 
249.160019 660.0 
251.56926 180.0 
251.742844 220.0 
252.24498 236.0 
253.190445 1120.0 
253.467728 220.0 
254.125351 172.0 
254.196899 300.0 
254.3125 164.0 
254.73497 184.0 
255.185715 172.0 
256.130493 220.0 
257.641907 200.0 
258.962433 168.0 
262.370392 192.0 
263.171753 540.0 
263.237946 168.0 
263.887146 236.0 
264.174866 180.0 
264.582458 172.0 
264.718384 184.0 
265.191925 224.0 
266.151031 204.0 
266.524384 164.0 
266.758301 212.0 
267.153687 1336.0 
267.1922 256.0 
268.033569 216.0 
268.138733 340.0 
268.196442 256.0 
268.502777 200.0 
269.155487 172.0 
269.785492 228.0 
270.966431 192.0 
272.031799 172.0 
272.704895 180.0 
272.921753 188.0 
274.205078 176.0 
274.30719 224.0 
277.290649 204.0 
277.409912 192.0 
278.454681 172.0 
278.750244 180.0 
279.205475 284.0 
280.830078 172.0 
281.185699 2448.0 
281.582275 180.0 
282.189209 524.0 
282.646667 176.0 
282.676788 260.0 
282.935822 168.0 
283.992859 236.0 
284.452362 172.0 
284.798065 196.0 
285.006256 188.0 
285.129181 232.0 
285.163635 39788.0 
285.368317 372.0 
285.39917 228.0 
286.062317 192.0 
286.166443 8472.0 
286.634155 168.0 
286.809326 172.0 
287.163239 1248.0 
288.16925 192.0 
289.035278 216.0 
289.985168 172.0 
292.358124 168.0 
292.381927 192.0 
293.427216 212.0 
294.518768 196.0 
298.471954 216.0 
298.523529 204.0 
301.521515 272.0 
301.759918 312.0 
301.886444 192.0 
302.006805 212.0 
302.036469 212.0 
302.225342 220.0 
302.73877 164.0 
302.763397 172.0 
303.012268 196.0 
303.07309 388.0 
303.173798 51124.0 
303.630005 268.0 
304.177002 8344.0 
304.260284 180.0 
304.685577 212.0 
305.173798 2656.0 
305.851715 220.0 
306.103577 228.0 
306.17218 596.0 
315.752655 176.0 
317.191437 200.0 
319.122711 200.0 
320.228973 216.0 
321.220276 668.0 
321.288025 256.0 
323.681702 184.0 
323.946625 228.0 
326.339386 184.0 
326.565826 180.0 
330.963074 356.0 
331.03186 228.0 
335.280426 296.0 
338.239868 1036.0 
339.246429 400.0 
340.243958 248.0 
343.412628 168.0 
344.247559 236.0 
345.044098 208.0 
345.184845 34716.0 
345.322235 188.0 
345.428558 176.0 
345.631958 168.0 
345.758881 164.0 
346.187927 7976.0 
346.290619 180.0 
347.182526 2712.0 
347.51944 172.0 
348.181 212.0 
348.263611 164.0 
348.308929 256.0 
348.470123 240.0 
349.184326 168.0 
359.101715 192.0 
362.093781 172.0 
362.131653 188.0 
377.190125 184.0 
377.247192 472.0 
380.656158 204.0 
383.133759 424.0 
383.195038 192.0 
388.109924 188.0 
390.115295 236.0 
395.667572 172.0 
401.131226 176.0 
402.24118 1048.0 
403.241791 280.0 
404.248413 196.0 
407.038361 168.0 
409.152344 164.0 
413.376526 172.0 
414.671906 164.0 
418.30545 660.0 
418.598724 220.0 
435.960266 196.0 
436.315338 4348.0 
437.320709 2032.0 
438.327271 468.0 
441.237793 180.0 
441.795166 212.0 
442.468689 184.0 
443.037994 228.0 
457.203125 376.0 
464.634583 168.0 
469.872498 212.0 
473.770386 200.0 
475.204254 188.0 
476.211487 212.0 
477.353973 216.0 
482.301147 1196.0 
483.310242 348.0 
484.302399 172.0 
493.576538 248.0 
496.551208 160.0 
497.251892 216.0 
498.104034 184.0 
498.219482 160.0 
498.321625 192.0 
498.756958 160.0 
500.313232 7268.0 
501.105652 176.0 
501.167999 204.0 
501.317535 4068.0 
502.208527 184.0 
502.314331 996.0 
502.754791 288.0 
503.22879 168.0 
503.322144 684.0 
503.683075 180.0 
504.233459 236.0 
527.204834 172.0 
1325.293945 192.0 
1574.183594 164.0 
1600.809326 180.0 
1619.257568 224.0 
1700.197021 192.0 
1792.531982 208.0 
1860.0354 200.0 
1878.494141 164.0 
1883.127441 180.0 
1894.229004 164.0 
1960.792114 212.0 
1967.828491 200.0 
1978.672119 200.0 
1992.253052 208.0 
1993.993896 220.0 
2002.130981 180.0 
END IONS

