BEGIN IONS
PEPMASS=535.19
CHARGE=1+
MSLEVEL=2
SOURCE_INSTRUMENT=LC-ESI-Ion Trap
FILENAME=AerucyclamideA_MSMS.mzXML
SEQ=*..*
IONMODE=Positive
ORGANISM=GNPS-LIBRARY
NAME=Aerucyclamide A M+H
PI=Gerwick
DATACOLLECTOR=E Briand
SMILES=[H][C@]12CSC(=N1)[C@]([H])(NC(=O)C1=CSC(CNC(=O)[C@@]3([H])N=C(O[C@@H]3C)[C@@]([H])(NC2=O)[C@@H](C)CC)=N1)[C@@H](C)CC
INCHI=InChI=1S/C24H34N6O4S2/c1-6-11(3)17-23-30-19(13(5)34-23)22(33)25-8-16-26-14(9-35-16)20(31)29-18(12(4)7-2)24-27-15(10-36-24)21(32)28-17/h9,11-13,15,17-19H,6-8,10H2,1-5H3,(H,25,33)(H,28,32)(H,29,31)/t11-,12-,13+,15+,17-,18+,19-/m0/s1
INCHIAUX=VJFRQMMMXJJUSM-VZGZUROSSA-N
PUBMED=18558743
SUBMITUSER=ebriand
LIBRARYQUALITY=2
SPECTRUMID=CCMSLIB00000071750
SCANS=507
154.369995 2974.0 
155.203156 1855.0 
158.000549 7460.0 
159.514557 4019.0 
164.868164 2679.0 
165.596863 1547.0 
169.767303 1454.0 
171.338745 2235.0 
182.117157 10944.0 
185.147766 2932.0 
191.012543 1821.0 
197.625366 2265.0 
198.763519 9862.0 
199.380951 3358.0 
207.325226 3957.0 
208.141449 605.0 
224.335083 11525.0 
225.069183 53400.0 
226.00293 23559.0 
227.064789 9722.0 
232.909271 1315.0 
239.175781 2104.0 
241.3013 1667.0 
251.60257 5500.0 
253.474335 1113.0 
262.062012 1027.0 
263.009216 1751.0 
264.047119 2825.0 
265.036682 3786.0 
265.852905 12005.0 
267.154053 5586.0 
268.333008 2135.0 
269.016052 103779.0 
270.019653 14487.0 
270.849609 1.0 
280.858826 3854.0 
282.006592 1312.0 
282.973083 9583.0 
291.460144 7258.0 
293.167175 11316.0 
294.059998 6102.0 
294.925537 5150.0 
305.768921 2702.0 
306.853027 1663.0 
309.118042 8500.0 
310.113464 1675.0 
318.277588 6073.0 
319.344727 2190.0 
321.021118 8672.0 
325.141113 2765.0 
326.71875 4241.0 
331.341309 3788.0 
332.046082 759.0 
332.933044 1318.0 
333.830444 893.0 
337.175964 24104.0 
338.990601 1938.0 
340.710938 3594.0 
342.987305 1948.0 
346.071289 1074.0 
350.463623 925.0 
353.592896 15294.0 
354.217163 17663.0 
355.103882 5116.0 
355.949158 24433.0 
356.863037 1801.0 
358.293945 2774.0 
360.176208 2875.0 
361.179321 15917.0 
364.365112 2018.0 
365.051331 3503.0 
366.806396 2692.0 
370.858887 8113.0 
375.923828 6422.0 
377.168701 10138.0 
378.115723 34357.0 
378.843201 2170.0 
379.937134 4130.0 
382.067078 18723.0 
382.996582 8663.0 
388.070068 1215.0 
388.915527 3132.0 
390.051392 37581.0 
391.125854 4160.0 
394.923401 1685.0 
396.189941 1923.0 
403.036011 5203.0 
404.108337 11404.0 
405.057556 8604.0 
406.043457 62054.0 
407.132996 15161.0 
407.829163 804.0 
412.031616 1667.0 
416.161316 11873.0 
417.238342 6468.0 
420.216736 12977.0 
420.869629 1.0 
422.027954 59743.0 
422.948669 13167.0 
424.09082 193853.0 
425.154663 45167.0 
432.075439 49178.0 
433.049622 18380.0 
434.299805 14498.0 
435.170288 4674.0 
436.240051 3058.0 
438.063477 3448.0 
439.087708 12751.0 
446.23584 35735.0 
447.182434 6237.0 
447.979675 5345.0 
449.333557 16587.0 
450.048706 507581.0 
451.005249 74534.0 
452.105225 17031.0 
453.173889 1114.0 
456.141541 7343.0 
459.152649 2271.0 
460.202148 12953.0 
461.097595 65718.0 
462.124817 17342.0 
462.941956 14547.0 
464.171509 35631.0 
464.777954 1.0 
467.010559 27026.0 
468.233215 763.0 
473.200928 32767.0 
474.115662 16343.0 
475.706726 2925.0 
478.061951 7664.0 
478.938477 2508.0 
482.747437 4613.0 
489.223511 14530.0 
490.223755 122550.0 
491.155884 110727.0 
492.218445 21453.0 
500.15625 6187.0 
501.192444 64663.0 
502.256165 2530.0 
507.103149 132643.0 
508.016296 64249.0 
508.893677 2944.0 
516.618164 13600.0 
517.227783 1579404.0 
518.227783 258351.0 
519.067871 4349.0 
535.068115 1717.0 
END IONS

