BEGIN IONS
PEPMASS=697.38
CHARGE=1+
MSLEVEL=2
SOURCE_INSTRUMENT=LC-ESI-Ion Trap
FILENAME=f.arihiro1013/purec_ompounds_0223/izenaB_190223190214.mzXML;
SEQ=*..*
IONMODE=Positive
ORGANISM=GNPS-LIBRARY
NAME=Izenamide C M+Na
PI=Gerwick
DATACOLLECTOR=Arihiro Iwasaki
SMILES=O=C(N([C@H](CC1=CC=CC=C1)C(N2CCC[C@H]2C(OC)=O)=O)C)CNC([C@@]([C@@H](C)CC)([H])NC([C@@](OC([C@H](C(C)C)O)=O)([H])[C@H](CC)C)=O)=O
INCHI=InChI=1S/C35H54N4O9/c1-9-22(5)28(37-32(43)30(23(6)10-2)48-35(46)29(41)21(3)4)31(42)36-20-27(40)38(7)26(19-24-15-12-11-13-16-24)33(44)39-18-14-17-25(39)34(45)47-8/h11-13,15-16,21-23,25-26,28-30,41H,9-10,14,17-20H2,1-8H3,(H,36,42)(H,37,43)/t22-,23-,25-,26+,28-,29-,30+/m0/s1
INCHIAUX=
PUBMED=29944370
SUBMITUSER=arihiro1013
LIBRARYQUALITY=3
SPECTRUMID=CCMSLIB00004753004
SCANS=589
222.311218 79761.0 
313.154297 115314.0 
314.057617 33042.0 
336.970337 97846.0 
370.204712 283580.0 
370.925903 18.0 
378.90686 30033.0 
406.254639 23896.0 
407.214905 100062.0 
461.408691 115826.0 
492.503845 129239.0 
493.269836 7040156.0 
494.351685 640786.0 
509.217041 249664.0 
509.88562 7.0 
510.523315 81389.0 
551.533691 20584.0 
568.390259 206028.0 
579.409668 2217596.0 
580.352051 280728.0 
597.436523 2307533.0 
598.610596 130452.0 
607.026367 34124.0 
608.025391 53650.0 
665.382812 103327.0 
679.393799 169668.0 
680.372437 29676.0 
696.324219 111512.0 
697.384399 55400024.0 
698.422974 22580368.0 
699.341675 16.0 
END IONS

