BEGIN IONS
PEPMASS=818.44
CHARGE=1+
MSLEVEL=2
SOURCE_INSTRUMENT=LC-ESI-Ion Trap
FILENAME=f.arihiro1013/purecompounds_2ndconversion/201909_biseokeaniamideA (2)..mzXML;
SEQ=*..*
IONMODE=Positive
ORGANISM=GNPS-LIBRARY
NAME=BiseokeaniamideA M+Na
PI=Gerwick
DATACOLLECTOR=Arihiro Iwasaki
SMILES=CCCC(N(C)[C@@H](C(C)C)C(N1[C@@H](CCC1)C(N([C@@H](CC2=CC=CC=C2)C(N[C@@H](CC(C)C)C(N(C)[C@H](C(N(CC3=NC=CS3)C)=O)C(C)C)=O)=O)C)=O)=O)=O
INCHI=InChI=1S/C42H65N7O6S/c1-12-17-35(50)47(10)37(29(6)7)42(55)49-22-16-20-32(49)40(53)46(9)33(25-30-18-14-13-15-19-30)38(51)44-31(24-27(2)3)39(52)48(11)36(28(4)5)41(54)45(8)26-34-43-21-23-56-34/h13-15,18-19,21,23,27-29,31-33,36-37H,12,16-17,20,22,24-26H2,1-11H3,(H,44,51)/t31-,32-,33-,36-,37-/m0/s1
INCHIAUX=
PUBMED=28294609
SUBMITUSER=arihiro1013
LIBRARYQUALITY=3
SPECTRUMID=CCMSLIB00004722220
SCANS=601
275.122925 51154.0 
280.307007 78532.0 
281.388123 133477.0 
378.07959 119189.0 
429.348938 289282.0 
436.641479 238521.0 
437.402222 6.0 
440.074402 99394.0 
463.45166 2094845.0 
464.386963 653723.0 
465.163086 159574.0 
482.177002 270588.0 
507.337219 143127.0 
508.53595 60526.0 
533.060547 664761.0 
533.762695 7.0 
538.228394 2128249.0 
539.407227 366890.0 
548.701416 1568539.0 
549.305298 28348184.0 
550.439453 4759184.0 
551.231201 3.0 
567.191895 85974.0 
577.185425 6534458.0 
578.214722 2188099.0 
578.832275 34.0 
590.780273 325133.0 
591.541992 31445.0 
599.298828 45952.0 
603.28064 95501.0 
608.434814 228176.0 
627.400635 204867.0 
634.734009 2090647.0 
635.412476 36861880.0 
636.358887 10497080.0 
637.212402 29.0 
646.433472 977484.0 
647.295654 891402.0 
648.405273 56447.0 
689.375854 621538.0 
690.177368 1022494.0 
691.409424 181093.0 
712.178223 299153.0 
717.316895 159027.0 
727.35083 107273.0 
817.799683 3986251.0 
818.545776 54838472.0 
819.553833 26774408.0 
820.435547 2.0 
END IONS

