BEGIN IONS
PEPMASS=488.1
CHARGE=0+
MSLEVEL=2
SOURCE_INSTRUMENT=LC-ESI-qTof
FILENAME=20130610_Ger_Jenia_Malynagamide_2_MH488.1-qb.1.1..mgf
SEQ=*..*
IONMODE=Positive
ORGANISM=GNPS-LIBRARY
NAME=Malyngamide 2  M+H
PI=Gerwick
DATACOLLECTOR=Jenia
SMILES=CCCCCCC[C@@H](C/C=C/CCC(=O)NC/C(=C/Cl)/[C@@H]1C(=O)[C@@H](C[C@H]([C@]1(C)O)O)O)OC
INCHI=InChI=1S/C25H42ClNO6/c1-4-5-6-7-9-12-19(33-3)13-10-8-11-14-22(30)27-17-18(16-26)23-24(31)20(28)15-21(29)25(23,2)32/h8,10,16,19-21,23,28-29,32H,4-7,9,11-15,17H2,1-3H3,(H,27,30)/b10-8+,18-16-/t19-,20+,21+,23+,25-/m0/s1
INCHIAUX=N/A
PUBMED=N/A
SUBMITUSER=mwang87
LIBRARYQUALITY=1
SPECTRUMID=CCMSLIB00000001799
SCANS=1
154.27533 5381.0 
160.977448 3303.0 
170.217651 947.0 
171.965881 1889.0 
177.482483 9825.0 
178.281311 1457.0 
185.495361 7095.0 
186.358093 8557.0 
196.265686 14493.0 
197.33667 15861.0 
205.071167 16668.0 
210.275452 2933.0 
213.790588 16509.0 
214.736511 4919.0 
224.086243 4993.0 
231.881561 7758.0 
244.274414 839.0 
255.989929 3905.0 
274.064209 11186.0 
277.084839 4134.0 
295.853882 5682.0 
300.382446 2548.0 
310.394165 1629.0 
322.19751 4185.0 
327.977051 24218.0 
329.596191 11705.0 
349.762329 4945.0 
366.23584 10550.0 
373.872742 27185.0 
384.248901 25821.0 
384.888855 3.0 
397.976257 2430.0 
398.636963 7736.0 
401.908081 19318.0 
415.990417 4320.0 
420.038025 134590.0 
433.918762 16523.0 
438.072388 463756.0 
438.687256 129.0 
452.00354 579596.0 
452.866638 1.0 
456.077881 247390.0 
456.933289 1.0 
469.98999 812085.0 
470.655457 1104.0 
END IONS

