BEGIN IONS
PEPMASS=515.92
CHARGE=1+
MSLEVEL=2
SOURCE_INSTRUMENT=LC-ESI-Ion Trap
FILENAME=carmaphycinA.mzXML
SEQ=*..*
IONMODE=Positive
ORGANISM=GNPS-LIBRARY
NAME=Carmaphycin A M+H
PI=Gerwick
DATACOLLECTOR=R de Felicio
SMILES=C[C@]1(OC1)C([C@H](CC(C)C)NC([C@H](CCS(C)=O)NC([C@H](C(C)C)NC(CCCCC)=O)=O)=O)=O
INCHI=N/A
INCHIAUX=N/A
PUBMED=24025162
SUBMITUSER=mwang87
LIBRARYQUALITY=1
SPECTRUMID=CCMSLIB00000006874
SCANS=1
149.103287 16015.0 
152.995514 22239.0 
154.138397 167020.0 
155.26651 29945.0 
163.030701 206.0 
165.029358 14737.0 
165.881348 70482.0 
166.473816 174.0 
169.078125 4537.0 
169.696472 8367.0 
179.907288 30649.0 
181.689758 12271.0 
182.195984 711.0 
186.780457 16081.0 
192.144714 7435.0 
192.656494 17906.0 
193.405518 2.0 
197.720093 253983.0 
198.490295 5.0 
204.532349 8597.0 
206.962982 54322.0 
208.059906 4045.0 
208.718155 59071.0 
209.937759 10224.0 
216.789856 1202.0 
218.941544 128802.0 
219.987335 10818.0 
226.7388 10112.0 
228.053711 17842.0 
232.979309 148.0 
236.591644 865.0 
237.112595 322077.0 
238.328522 2442.0 
243.119385 83178.0 
245.919266 89340.0 
246.538055 4.0 
248.284637 275.0 
252.949646 72543.0 
254.021957 44862.0 
254.996231 194491.0 
256.448853 2262.0 
265.114929 4270.0 
275.328125 59673.0 
281.015991 86041.0 
282.854614 26961.0 
284.064575 1056.0 
292.556152 3401.0 
293.250366 11362.0 
294.989624 27230.0 
300.934601 1749344.0 
301.957153 20452.0 
311.883911 803.0 
317.284912 20914.0 
318.19165 18238.0 
318.919922 3401726.0 
319.559906 22.0 
328.758301 24412.0 
344.866211 1857215.0 
345.527344 935.0 
346.760071 34283.0 
351.010681 1463.0 
351.995972 27838.0 
353.674805 17098.0 
361.940186 29306.0 
396.812256 692.0 
417.143738 27709.0 
418.080994 15217.0 
424.845428 4557.0 
434.138977 13976.0 
447.750732 4697.0 
450.128601 140944.0 
451.358643 13159.0 
452.061096 3646407.0 
452.741699 122.0 
468.795044 40755.0 
469.840271 491.0 
472.786499 1174.0 
479.935791 22663.0 
481.229004 820.0 
485.974609 128179.0 
496.716553 1492.0 
498.100159 323387.0 
498.829346 5.0 
END IONS

