BEGIN IONS
PEPMASS=437.276
CHARGE=1+
MSLEVEL=2
SOURCE_INSTRUMENT=LC-ESI-qTof
FILENAME=2F6_tBuOGlu(OMe)Valhexanoate_MNa_437.mzXML
SEQ=*..*
IONMODE=Positive
ORGANISM=GNPS-LIBRARY
NAME=tBuO-Glu(Ome)-Val-hexanoate M+Na
PI=Dorrestein/Gerwick
DATACOLLECTOR=Luzzatto/Garg
SMILES=CCCCCC(NC(C(C)C)C(NC(CCC(OC)=O)C(OC(C)(C)C)=O)=O)=O
INCHI=N/A
INCHIAUX=N/A
PUBMED=N/A
SUBMITUSER=tal_lk
LIBRARYQUALITY=2
SPECTRUMID=CCMSLIB00000070304
SCANS=1295
97.268677 216.0 
99.900192 220.0 
101.116455 268.0 
101.97451 240.0 
102.203667 220.0 
102.949196 192.0 
106.106079 232.0 
107.636093 204.0 
107.914917 240.0 
109.083694 216.0 
110.298462 264.0 
111.768005 264.0 
112.336617 268.0 
113.336212 244.0 
114.102104 240.0 
114.793816 248.0 
114.868431 204.0 
116.166367 204.0 
116.490372 212.0 
118.011276 220.0 
119.137794 304.0 
119.990555 212.0 
120.57531 196.0 
120.826668 200.0 
121.001678 208.0 
125.531807 212.0 
127.775238 296.0 
129.478104 216.0 
129.52179 300.0 
129.832169 204.0 
130.229172 252.0 
131.100174 232.0 
131.820984 212.0 
132.404099 220.0 
132.855453 224.0 
133.206543 224.0 
133.234909 224.0 
133.576477 208.0 
136.187378 344.0 
137.770706 212.0 
138.052353 464.0 
139.037964 524.0 
139.069778 212.0 
139.51825 236.0 
140.065308 308.0 
140.542343 264.0 
141.073517 228.0 
142.870346 264.0 
144.269638 208.0 
144.803009 200.0 
146.245392 236.0 
146.560745 244.0 
147.065506 192.0 
148.569046 208.0 
149.207489 220.0 
149.786423 228.0 
150.505569 224.0 
150.564163 244.0 
151.365936 248.0 
151.728409 272.0 
151.782074 196.0 
152.032059 952.0 
152.486588 196.0 
154.428619 192.0 
154.690796 324.0 
154.799683 224.0 
155.426559 292.0 
155.729309 200.0 
156.338165 252.0 
157.015457 212.0 
157.20253 192.0 
157.539459 236.0 
157.736786 244.0 
159.357559 224.0 
159.930679 280.0 
160.059021 252.0 
161.663818 244.0 
161.861191 232.0 
162.979324 196.0 
163.083481 224.0 
164.517319 192.0 
166.048035 8720.0 
166.292709 260.0 
166.404083 196.0 
166.487747 200.0 
166.688034 204.0 
167.029327 236.0 
167.051498 856.0 
168.016037 196.0 
168.70787 216.0 
169.370041 212.0 
170.155457 196.0 
170.243713 264.0 
170.797058 212.0 
171.590988 204.0 
172.081284 252.0 
172.300583 220.0 
172.49649 212.0 
172.637619 212.0 
174.921921 208.0 
177.968903 192.0 
178.694199 252.0 
179.271759 256.0 
182.114517 216.0 
183.1577 192.0 
183.219635 232.0 
183.402802 264.0 
184.05867 15896.0 
184.636154 192.0 
185.059845 940.0 
185.466995 204.0 
185.710922 212.0 
187.01857 228.0 
188.249054 220.0 
188.371918 200.0 
188.500275 204.0 
191.07933 236.0 
191.183853 200.0 
192.137161 200.0 
192.835144 228.0 
193.152237 208.0 
194.044449 1288.0 
196.053177 248.0 
197.090805 228.0 
197.644211 220.0 
202.305878 208.0 
202.563461 216.0 
203.226578 232.0 
204.433716 192.0 
205.059448 376.0 
205.136932 208.0 
205.350693 220.0 
205.444778 196.0 
206.95134 200.0 
206.984665 208.0 
207.491226 284.0 
208.177063 224.0 
208.501984 220.0 
210.035522 204.0 
210.153763 204.0 
210.232651 268.0 
210.393204 196.0 
211.580902 192.0 
212.679092 212.0 
213.640533 200.0 
214.167175 228.0 
214.980255 264.0 
218.821457 212.0 
219.146454 732.0 
219.17276 332.0 
220.130051 1264.0 
220.963257 232.0 
221.133682 620.0 
221.336029 204.0 
223.275986 208.0 
225.836868 252.0 
226.554993 192.0 
226.89949 240.0 
227.244247 192.0 
228.232391 220.0 
230.017776 224.0 
230.585388 196.0 
230.621643 236.0 
230.920837 232.0 
231.314026 236.0 
231.700027 240.0 
231.907455 240.0 
232.389435 196.0 
233.157364 196.0 
233.7724 196.0 
234.066559 220.0 
234.374069 232.0 
236.79863 212.0 
237.153519 536.0 
238.113708 240.0 
238.142151 11540.0 
238.379089 216.0 
239.09024 256.0 
239.147064 1168.0 
239.90387 208.0 
240.14505 412.0 
242.177185 276.0 
242.383972 196.0 
243.36441 224.0 
243.979309 192.0 
244.128494 192.0 
245.451385 220.0 
245.920486 216.0 
246.580994 288.0 
247.234344 304.0 
247.56604 200.0 
248.07547 256.0 
248.590714 240.0 
248.800919 232.0 
249.818695 200.0 
250.284286 216.0 
250.368149 224.0 
251.14743 224.0 
251.321182 196.0 
252.145676 196.0 
253.295929 280.0 
253.409927 224.0 
256.134521 192.0 
256.526276 192.0 
256.632233 264.0 
257.843964 224.0 
258.083618 216.0 
258.90567 272.0 
259.222687 196.0 
260.444519 256.0 
261.216217 216.0 
262.287476 260.0 
263.406708 240.0 
264.644806 220.0 
265.405914 200.0 
265.879333 196.0 
265.968781 252.0 
266.148651 200.0 
268.311371 200.0 
269.492065 240.0 
271.265411 196.0 
271.904724 296.0 
273.445496 312.0 
273.473175 228.0 
273.688995 204.0 
274.683868 208.0 
275.142365 248.0 
275.627686 208.0 
276.275452 268.0 
276.602905 220.0 
276.90741 212.0 
277.347626 244.0 
277.510254 192.0 
277.679321 240.0 
279.143219 192.0 
280.001465 208.0 
283.128967 1464.0 
283.863037 200.0 
284.044067 192.0 
284.145691 356.0 
284.480133 292.0 
285.13147 232.0 
285.827301 200.0 
287.899567 228.0 
288.122406 212.0 
288.171326 256.0 
289.66098 224.0 
289.843842 224.0 
290.84729 204.0 
290.976227 224.0 
291.186676 220.0 
291.51947 192.0 
292.849121 216.0 
292.927429 268.0 
293.666779 260.0 
294.209106 216.0 
294.465118 248.0 
294.902252 360.0 
295.360229 232.0 
296.55127 224.0 
297.079132 232.0 
297.991943 208.0 
298.110107 200.0 
298.311432 196.0 
298.39389 220.0 
299.026581 204.0 
299.071899 208.0 
299.852814 192.0 
299.918274 212.0 
300.966583 320.0 
301.132263 204.0 
301.62616 236.0 
302.30722 204.0 
302.680908 240.0 
302.983246 232.0 
303.182983 236.0 
304.132904 252.0 
305.178406 400.0 
306.266907 236.0 
306.678864 228.0 
307.497162 252.0 
308.355988 236.0 
309.376923 188.0 
311.522217 224.0 
311.5784 196.0 
312.035095 204.0 
313.787659 248.0 
315.192596 244.0 
316.54007 208.0 
318.179932 228.0 
318.984253 212.0 
319.199097 1060.0 
319.764648 244.0 
319.967438 208.0 
320.201538 520.0 
320.562042 200.0 
320.790039 224.0 
321.179016 1528.0 
322.183044 820.0 
322.742096 208.0 
323.88324 204.0 
325.288269 224.0 
325.329834 224.0 
325.887787 200.0 
325.94165 204.0 
328.136292 236.0 
328.391296 244.0 
329.01532 204.0 
329.651672 208.0 
330.388947 196.0 
331.112579 204.0 
331.161469 200.0 
331.228424 204.0 
331.402252 196.0 
331.525391 220.0 
332.28653 228.0 
332.943268 264.0 
334.83725 240.0 
335.037506 204.0 
335.19342 412.0 
335.29248 252.0 
335.317963 200.0 
335.664154 244.0 
336.197601 204.0 
336.913788 220.0 
338.214935 188.0 
339.084473 244.0 
339.158234 204.0 
339.31897 196.0 
339.883575 204.0 
340.441315 256.0 
340.731354 236.0 
341.190552 216.0 
341.304504 220.0 
341.970062 220.0 
342.065735 244.0 
342.16507 212.0 
342.260773 192.0 
342.5737 240.0 
342.787292 192.0 
343.44693 196.0 
343.663025 220.0 
344.280701 208.0 
345.239014 256.0 
346.376923 204.0 
347.040009 224.0 
347.725647 228.0 
347.834229 232.0 
349.17627 908.0 
349.568512 192.0 
350.158875 216.0 
350.193695 196.0 
350.76355 228.0 
351.829987 264.0 
352.057922 232.0 
353.294312 200.0 
353.481323 268.0 
354.218567 224.0 
354.626801 192.0 
354.806671 248.0 
354.889099 200.0 
356.434906 280.0 
356.979736 192.0 
357.841034 196.0 
357.938904 224.0 
358.850342 204.0 
359.023743 304.0 
359.864868 192.0 
359.981873 248.0 
360.763641 204.0 
361.485748 204.0 
361.644623 216.0 
362.276733 200.0 
363.184631 336.0 
364.335815 200.0 
364.992523 204.0 
366.252197 288.0 
367.147491 216.0 
368.311096 188.0 
368.593689 196.0 
368.752625 236.0 
369.153076 208.0 
370.421692 236.0 
373.518127 200.0 
374.225952 224.0 
374.734131 220.0 
374.785889 208.0 
375.157867 268.0 
375.186737 192.0 
375.952087 192.0 
376.162292 232.0 
376.307068 208.0 
377.110229 220.0 
378.187775 1176.0 
378.462341 216.0 
378.693146 1064.0 
378.815918 308.0 
378.894501 208.0 
379.68927 268.0 
379.762909 244.0 
379.84729 252.0 
380.142181 208.0 
380.404846 196.0 
380.542511 328.0 
380.909271 236.0 
380.99234 236.0 
381.109924 492.0 
381.202759 155948.0 
381.347198 344.0 
381.390594 204.0 
381.411041 332.0 
381.456848 212.0 
381.57547 224.0 
381.622437 192.0 
381.676178 276.0 
381.792236 392.0 
381.843842 3212.0 
381.906982 448.0 
381.988342 308.0 
382.102844 188.0 
382.204803 51576.0 
382.626129 196.0 
382.761017 248.0 
383.111633 212.0 
383.20639 7196.0 
384.206116 760.0 
384.356903 264.0 
384.392761 196.0 
384.424255 192.0 
384.50769 268.0 
384.6203 240.0 
384.66629 364.0 
384.70874 388.0 
386.408752 208.0 
386.877563 264.0 
387.531342 236.0 
389.280029 208.0 
392.075897 188.0 
392.300476 272.0 
397.162445 260.0 
403.559174 196.0 
408.337189 336.0 
408.839874 236.0 
413.760529 216.0 
415.216339 192.0 
418.5065 200.0 
418.799591 192.0 
419.447174 260.0 
424.514801 264.0 
426.643188 236.0 
429.967529 196.0 
432.045593 256.0 
432.313141 268.0 
434.936279 212.0 
435.202484 196.0 
435.338837 244.0 
436.290344 316.0 
436.677246 236.0 
436.891815 280.0 
436.967529 192.0 
437.069824 328.0 
437.1315 584.0 
437.196472 1068.0 
437.26532 107896.0 
437.412415 196.0 
437.451141 228.0 
437.610596 260.0 
437.682526 188.0 
437.724243 348.0 
437.950378 1524.0 
438.102692 216.0 
438.198792 248.0 
438.26767 46988.0 
438.348145 448.0 
438.389954 304.0 
438.547791 296.0 
438.578369 324.0 
438.755676 268.0 
438.802856 224.0 
438.957397 240.0 
439.177734 208.0 
439.269012 5408.0 
439.344269 372.0 
440.27063 1276.0 
440.777832 252.0 
440.819916 216.0 
440.997742 200.0 
441.035706 348.0 
559.244019 228.0 
612.351318 228.0 
1385.641968 228.0 
1479.759155 232.0 
1574.330933 212.0 
1687.813721 212.0 
1831.66394 192.0 
1841.332275 204.0 
1871.143677 232.0 
1916.754028 248.0 
1944.337769 264.0 
1958.288696 236.0 
END IONS

