BEGIN IONS
PEPMASS=538.306
CHARGE=1+
MSLEVEL=2
SOURCE_INSTRUMENT=LC-ESI-qTof
FILENAME=2F2_CarmaphycinBenone_analogue_MNa_538.mzXML
SEQ=*..*
IONMODE=Positive
ORGANISM=GNPS-LIBRARY
NAME=Carmaphycin B enone analogue M+Na
PI=Dorrestein/Gerwick
DATACOLLECTOR=Luzzatto/Garg
SMILES=CC(C([C@H](CC(C)C)NC([C@H](CCS(=O)(C)=O)NC([C@H](C(C)C)NC(CCCCC)=O)=O)=O)=O)=C
INCHI=N/A
INCHIAUX=N/A
PUBMED=N/A
SUBMITUSER=tal_lk
LIBRARYQUALITY=2
SPECTRUMID=CCMSLIB00000070296
SCANS=1338
103.881798 168.0 
111.505157 260.0 
112.319656 200.0 
114.595573 172.0 
122.098274 204.0 
132.516174 236.0 
133.02739 248.0 
133.075577 260.0 
134.356979 188.0 
136.038712 176.0 
136.74736 264.0 
138.989899 184.0 
139.964981 236.0 
141.016693 164.0 
142.98439 172.0 
146.341522 168.0 
150.093246 196.0 
151.042877 172.0 
151.402527 224.0 
151.515152 172.0 
156.141861 176.0 
159.005981 180.0 
163.805679 248.0 
164.068054 204.0 
165.656921 164.0 
167.201996 176.0 
168.625046 224.0 
169.020538 172.0 
169.132675 264.0 
170.15242 508.0 
172.778656 164.0 
177.101929 200.0 
177.152237 216.0 
177.88649 176.0 
181.245529 184.0 
183.111893 208.0 
184.049835 208.0 
186.568481 260.0 
188.505569 208.0 
190.115112 188.0 
192.135162 220.0 
193.14093 192.0 
193.313232 216.0 
194.934784 244.0 
198.145065 380.0 
199.42688 192.0 
204.036072 232.0 
205.062683 256.0 
206.118134 180.0 
208.357773 220.0 
210.930115 180.0 
211.141098 200.0 
211.780457 176.0 
211.848831 204.0 
213.407776 172.0 
213.573471 204.0 
214.014938 1376.0 
215.114273 184.0 
216.008087 184.0 
216.672333 204.0 
219.147034 724.0 
219.189301 244.0 
220.131546 936.0 
220.188934 172.0 
221.084335 176.0 
221.130508 184.0 
221.823654 172.0 
222.916229 176.0 
223.626709 236.0 
224.076172 212.0 
225.968262 192.0 
230.116074 236.0 
231.571091 192.0 
232.131516 408.0 
233.124008 232.0 
234.605408 176.0 
235.896164 168.0 
236.581116 232.0 
237.193527 236.0 
237.622681 240.0 
238.140839 548.0 
238.168869 196.0 
238.60199 184.0 
239.178299 452.0 
241.991257 188.0 
243.140793 172.0 
245.360794 236.0 
246.762009 224.0 
247.143433 268.0 
247.277939 172.0 
249.114609 220.0 
249.155441 168.0 
251.106232 196.0 
252.596451 188.0 
255.122787 184.0 
255.796906 208.0 
257.098755 500.0 
258.172913 200.0 
258.60144 196.0 
259.178284 216.0 
259.491608 208.0 
260.184662 180.0 
261.115753 216.0 
261.189697 180.0 
262.163208 216.0 
263.173706 604.0 
264.174683 208.0 
264.193359 328.0 
264.660767 248.0 
265.07196 168.0 
265.276062 220.0 
267.149078 220.0 
268.065002 544.0 
268.62735 200.0 
269.065094 352.0 
269.730591 184.0 
273.086792 232.0 
274.232086 192.0 
275.082733 172.0 
275.173096 5148.0 
275.512756 164.0 
276.177887 1140.0 
277.178345 280.0 
277.634277 300.0 
278.259521 172.0 
279.415619 212.0 
279.924652 184.0 
280.290924 216.0 
281.017517 204.0 
283.946625 232.0 
284.923004 180.0 
286.655334 252.0 
288.939972 224.0 
289.488068 176.0 
290.541748 228.0 
291.108337 200.0 
291.19281 168.0 
293.252533 172.0 
295.219818 216.0 
295.650665 216.0 
296.444824 172.0 
298.146271 200.0 
298.38678 244.0 
300.717865 172.0 
301.156189 188.0 
301.601715 220.0 
301.798676 192.0 
303.173492 208.0 
303.203522 172.0 
305.18634 212.0 
305.480316 184.0 
307.074951 168.0 
308.153137 192.0 
308.195038 168.0 
308.918427 164.0 
309.114288 184.0 
312.565704 240.0 
312.93866 196.0 
313.780365 188.0 
314.168121 172.0 
315.251617 200.0 
317.084045 176.0 
317.188812 336.0 
317.381714 200.0 
318.179657 252.0 
319.01416 168.0 
319.162231 308.0 
320.174469 336.0 
321.166016 200.0 
321.217499 176.0 
322.645325 280.0 
323.60376 240.0 
324.130737 212.0 
326.081482 188.0 
328.839142 168.0 
330.236816 180.0 
332.187744 352.0 
333.0737 208.0 
333.163177 300.0 
333.21167 176.0 
336.178009 184.0 
338.099426 172.0 
338.237122 316.0 
339.129944 280.0 
339.172211 1108.0 
340.177612 296.0 
341.149658 1228.0 
341.216003 172.0 
342.158142 488.0 
343.148071 168.0 
343.173889 208.0 
344.114319 240.0 
344.793701 168.0 
345.111481 208.0 
345.207245 232.0 
345.93985 216.0 
346.208344 312.0 
347.173157 172.0 
347.220581 212.0 
351.132446 572.0 
351.176941 204.0 
353.784058 164.0 
354.993774 208.0 
355.166107 5612.0 
355.451233 204.0 
355.496216 256.0 
356.072632 220.0 
356.16983 1176.0 
357.155823 396.0 
357.280212 176.0 
358.951813 176.0 
360.487549 188.0 
361.06192 184.0 
361.659454 164.0 
362.14389 176.0 
362.239838 456.0 
362.374878 168.0 
363.25116 180.0 
364.715332 180.0 
365.15094 500.0 
365.237976 176.0 
366.807983 212.0 
367.223419 180.0 
368.150452 188.0 
368.410065 196.0 
369.327087 272.0 
374.205444 180.0 
375.145996 212.0 
376.206421 192.0 
376.260437 300.0 
377.040375 184.0 
377.075165 204.0 
378.049316 172.0 
380.203094 180.0 
383.160553 1916.0 
384.165527 416.0 
384.349609 224.0 
385.143677 192.0 
387.206024 160.0 
388.217529 400.0 
388.420563 176.0 
388.644073 224.0 
389.099182 204.0 
389.225586 224.0 
390.281433 228.0 
391.268433 192.0 
395.348083 216.0 
395.605225 256.0 
396.222778 228.0 
397.237213 196.0 
397.717133 180.0 
398.709656 184.0 
399.230225 160.0 
400.186646 196.0 
400.555023 188.0 
400.997101 208.0 
401.169647 464.0 
402.171509 204.0 
402.235535 228.0 
402.79187 168.0 
403.115356 204.0 
403.367035 188.0 
404.743378 188.0 
405.203125 160.0 
405.259186 188.0 
405.315277 180.0 
405.932312 236.0 
406.140778 192.0 
407.043396 224.0 
407.24411 196.0 
409.515625 160.0 
410.36554 224.0 
411.478607 216.0 
413.337097 236.0 
414.648621 176.0 
416.250916 388.0 
417.25174 240.0 
418.310547 256.0 
419.30368 184.0 
420.09494 216.0 
420.44873 176.0 
421.404877 160.0 
422.205719 180.0 
422.545074 184.0 
425.773773 164.0 
426.199738 492.0 
427.697144 276.0 
428.207092 188.0 
428.759308 172.0 
429.290894 180.0 
430.261719 388.0 
431.106506 168.0 
431.272583 412.0 
431.470093 220.0 
432.015747 176.0 
432.255615 188.0 
432.83075 168.0 
435.720459 200.0 
436.048584 172.0 
436.315338 360.0 
436.626221 220.0 
437.322144 168.0 
437.449738 212.0 
439.320038 160.0 
439.812225 184.0 
440.285583 780.0 
440.338074 160.0 
440.793243 168.0 
441.292755 288.0 
441.679199 212.0 
442.126678 244.0 
442.2229 164.0 
442.319122 188.0 
442.712524 160.0 
443.703033 268.0 
446.399658 180.0 
449.186615 172.0 
449.663208 192.0 
450.237152 160.0 
451.668152 216.0 
452.193787 180.0 
453.802826 176.0 
454.345459 176.0 
454.943604 176.0 
457.892487 192.0 
458.19986 164.0 
458.299622 4628.0 
458.689728 212.0 
459.199097 256.0 
459.301422 2052.0 
459.538025 184.0 
460.315002 272.0 
462.387024 248.0 
463.170258 176.0 
463.427185 188.0 
463.568512 204.0 
466.245056 176.0 
466.460052 160.0 
467.044617 220.0 
467.741394 192.0 
468.391327 192.0 
468.895203 164.0 
470.054779 176.0 
470.529358 216.0 
471.986359 248.0 
472.222565 180.0 
472.646332 252.0 
475.12793 276.0 
475.765594 264.0 
476.57309 196.0 
477.8508 188.0 
478.111786 180.0 
480.145447 232.0 
480.328979 256.0 
480.773407 192.0 
482.196533 180.0 
483.123138 240.0 
483.765228 160.0 
484.492828 160.0 
484.873871 176.0 
485.566284 196.0 
485.658356 228.0 
486.939423 200.0 
487.237976 188.0 
487.72995 208.0 
489.880829 176.0 
491.118927 196.0 
494.002167 208.0 
494.294037 212.0 
495.196777 256.0 
495.590881 268.0 
495.949677 240.0 
496.601196 200.0 
497.242828 164.0 
497.763428 180.0 
497.945435 200.0 
498.291779 180.0 
499.264801 216.0 
501.608002 176.0 
502.24762 180.0 
502.278839 176.0 
503.276581 228.0 
503.853973 200.0 
506.653381 240.0 
507.643524 160.0 
508.244354 168.0 
510.255676 240.0 
510.506989 228.0 
510.844543 248.0 
511.217834 168.0 
511.766785 208.0 
512.811462 208.0 
513.830139 168.0 
514.416565 168.0 
514.48877 164.0 
515.260681 160.0 
515.734985 184.0 
517.231567 180.0 
517.580017 200.0 
520.280273 2652.0 
520.34668 300.0 
520.394531 228.0 
521.286499 1076.0 
522.887573 200.0 
523.286621 340.0 
523.448792 192.0 
525.676941 236.0 
526.081909 164.0 
526.156006 184.0 
526.845337 176.0 
527.348511 236.0 
527.873291 196.0 
528.202454 208.0 
528.806152 180.0 
529.847534 304.0 
531.14801 160.0 
533.005127 220.0 
534.149414 176.0 
534.20459 204.0 
535.281494 2304.0 
535.783569 1028.0 
535.889282 204.0 
536.183655 196.0 
536.232422 252.0 
536.28302 1092.0 
536.375061 176.0 
536.547607 188.0 
536.613953 272.0 
536.708923 196.0 
536.78656 816.0 
536.872131 212.0 
536.961182 228.0 
537.111145 260.0 
537.151123 320.0 
537.273132 344.0 
537.385986 244.0 
537.430908 184.0 
537.643311 428.0 
537.776978 196.0 
537.809204 308.0 
537.942139 216.0 
537.986694 164.0 
538.047729 212.0 
538.147217 388.0 
538.293945 125080.0 
538.458374 324.0 
538.706238 364.0 
538.751221 300.0 
538.783325 392.0 
538.858398 224.0 
538.898254 260.0 
538.994202 408.0 
539.053528 1076.0 
539.137634 560.0 
539.230835 304.0 
539.296143 52864.0 
539.708679 176.0 
539.734924 332.0 
539.892273 204.0 
539.97229 368.0 
540.155396 200.0 
540.292297 15948.0 
540.406189 184.0 
540.472595 228.0 
540.525757 244.0 
540.546692 224.0 
540.657959 228.0 
540.80835 200.0 
541.038696 168.0 
541.292297 2816.0 
541.599121 180.0 
541.733521 276.0 
541.922546 168.0 
542.072266 236.0 
542.241211 300.0 
542.294556 564.0 
542.360046 172.0 
542.534912 216.0 
542.570801 236.0 
542.606323 240.0 
543.103394 160.0 
543.598328 204.0 
545.858887 192.0 
545.968018 180.0 
555.273682 348.0 
556.522827 168.0 
557.306885 176.0 
560.274475 332.0 
570.226135 304.0 
572.413574 164.0 
574.1427 216.0 
632.927002 216.0 
669.765076 164.0 
718.06134 168.0 
972.265015 164.0 
1274.763184 160.0 
1307.180542 164.0 
1411.293213 180.0 
1449.152588 168.0 
1829.440796 196.0 
END IONS

