BEGIN IONS
PEPMASS=743.4
CHARGE=0+
MSLEVEL=2
SOURCE_INSTRUMENT=LC-ESI-qTof
FILENAME=20130719_Ger_Pluto_Hoiamide_D_MH743.3-qb.1.1..mgf
SEQ=*..*
IONMODE=Positive
ORGANISM=GNPS-LIBRARY
NAME=Hoiamide D M+H
PI=Gerwick
DATACOLLECTOR=Pluto
SMILES=CCC[C@@H](C)[C@@H]([C@H](C)[C@H]([C@@H](C)[C@H](CC1=NC(=CS1)C2=N[C@@](CS2)(C)C3=N[C@@](CS3)(C)C(=O)N[C@@H]([C@@H](C)CC)[C@H]([C@@H](C)C(=O)O)O)OC)O)O
INCHI=InChI=1S/C35H58N4O7S3/c1-11-13-19(4)27(40)21(6)28(41)20(5)24(46-10)14-25-36-23(15-47-25)30-38-35(9,17-48-30)33-39-34(8,16-49-33)32(45)37-26(18(3)12-2)29(42)22(7)31(43)44/h15,18-22,24,26-29,40-42H,11-14,16-17H2,1-10H3,(H,37,45)(H,43,44)/t18-,19+,20-,21-,22+,24-,26-,27-,28-,29-,34+,35+/m0/s1
INCHIAUX=N/A
PUBMED=N/A
SUBMITUSER=mwang87
LIBRARYQUALITY=1
SPECTRUMID=CCMSLIB00000001813
SCANS=1
250.155762 1610.0 
268.926392 6919.0 
299.096191 4218.0 
316.960388 5771.0 
324.167114 2181.0 
340.842346 1941.0 
348.200562 828.0 
353.303833 4227.0 
359.329041 7509.0 
376.344849 6492.0 
377.229919 12534.0 
382.813843 7667.0 
391.068604 12928.0 
408.951477 23938.0 
421.24469 5969.0 
421.925781 4440.0 
427.415039 2163.0 
436.21051 449.0 
440.370483 2510.0 
441.185791 3225.0 
451.267578 2347.0 
453.067261 12107.0 
458.217651 2876.0 
465.524292 2145.0 
467.049042 12202.0 
475.247986 4362.0 
476.140533 8083.0 
477.583679 2645.0 
479.05426 1629.0 
479.886353 2551.0 
495.004395 2270.0 
497.207947 1844.0 
499.200806 1918.0 
503.135895 62200.0 
503.981018 11377.0 
507.608154 12802.0 
508.516388 15265.0 
509.415161 3799.0 
513.029724 5584.0 
519.108643 5930.0 
521.216309 86398.0 
522.073792 21906.0 
523.14093 32747.0 
525.699585 3944.0 
531.069763 20099.0 
535.19165 29810.0 
537.052063 16118.0 
539.412781 9333.0 
540.093506 2020.0 
541.066284 7851.0 
545.225952 6207.0 
547.105652 31421.0 
547.763916 4.0 
550.499756 4522.0 
551.147705 5154.0 
553.167358 102092.0 
554.155762 17290.0 
555.08252 79235.0 
557.183716 3689.0 
562.423584 1415.0 
563.122986 49001.0 
563.752686 1.0 
565.241577 3274.0 
567.174927 12727.0 
571.225098 2217.0 
575.031982 50226.0 
575.705566 1.0 
576.257812 2151.0 
577.232666 7249.0 
579.244629 2964.0 
581.116516 187697.0 
581.737305 6.0 
583.285156 9407.0 
585.186523 2364.0 
589.269165 3849.0 
590.487305 2857.0 
591.182861 381.0 
593.134583 530058.0 
595.094116 51028.0 
597.331543 542.0 
601.304993 12552.0 
605.243652 9555.0 
607.032288 9039.0 
611.329163 9426.0 
612.36676 4842.0 
613.097656 380891.0 
613.741699 2.0 
615.518799 569.0 
617.370605 13384.0 
619.199829 4175.0 
620.51709 1874.0 
621.404297 1047.0 
625.160767 142586.0 
626.164734 440.0 
628.643311 13434.0 
629.30304 29465.0 
631.074524 18063.0 
633.051392 14934.0 
639.320923 1503.0 
645.253662 21206.0 
647.150513 28070.0 
647.789795 1125.0 
649.384033 9886.0 
651.261414 25277.0 
653.39917 703.0 
657.214233 89009.0 
657.956055 1.0 
661.140808 46969.0 
663.079041 114582.0 
663.965576 3.0 
669.142334 17501.0 
671.285034 1656.0 
674.393311 6151.0 
675.207458 1197917.0 
675.841309 291.0 
679.232483 197581.0 
679.854736 179.0 
681.16156 38521.0 
689.169861 112430.0 
689.849365 2.0 
693.198792 511878.0 
695.387207 2178.0 
697.250732 81399.0 
698.083496 2058.0 
706.19397 3187.0 
707.174622 1490523.0 
707.788269 2572.0 
711.138794 105085.0 
724.453613 7549.0 
725.18988 2228327.0 
725.982544 8.0 
741.915649 3478.0 
END IONS

