BEGIN IONS
PEPMASS=825.5
CHARGE=0+
MSLEVEL=2
SOURCE_INSTRUMENT=LC-ESI-Ion Trap
FILENAME=20130517_Ger_Jenia_Nodularin_MH825.5-qb.1.1..mgf
SEQ=*..*
IONMODE=Positive
ORGANISM=GNPS-LIBRARY
NAME=Nodularin M+H
PI=Gerwick
DATACOLLECTOR=Jenia
SMILES=CO[C@@H](CC1=CC=CC=C1)[C@@H](C)\C=C(/C)\C=C\[C@@H]1NC(=O)[C@H](CCCNC(N)=N)NC(=O)[C@@H](C)[C@@H](NC(=O)\C(=C\C)N(C)C(=O)CC[C@@H](NC(=O)[C@H]1C)C(O)=O)C(O)=O
INCHI=InChI=1S/C41H60N8O10/c1-8-31-38(54)48-34(40(57)58)26(5)36(52)46-29(15-12-20-44-41(42)43)37(53)45-28(25(4)35(51)47-30(39(55)56)18-19-33(50)49(31)6)17-16-23(2)21-24(3)32(59-7)22-27-13-10-9-11-14-27/h8-11,13-14,16-17,21,24-26,28-30,32,34H,12,15,18-20,22H2,1-7H3,(H,45,53)(H,46,52)(H,47,51)(H,48,54)(H,55,56)(H,57,58)(H4,42,43,44)/b17-16+,23-21+,31-8-/t24-,25-,26-,28-,29-,30+,32-,34+/m0/s1
INCHIAUX=IXBQSRWSVIBXNC-HSKGSTCASA-N
PUBMED=N/A
SUBMITUSER=mwang87
LIBRARYQUALITY=1
SPECTRUMID=CCMSLIB00000001777
SCANS=1
233.974976 782963.0 
240.385742 805195.0 
241.446289 2112963.0 
242.156738 37.0 
243.226807 2788800.0 
244.150787 1186934.0 
246.270447 1760784.0 
248.228638 1374398.0 
250.239105 2748778.0 
250.886658 3181259.0 
251.896515 1092272.0 
252.994446 2079066.0 
253.92276 19.0 
258.236328 5127580.0 
259.044006 519081.0 
259.877319 2870954.0 
260.530396 734.0 
265.089539 7698709.0 
265.830322 408.0 
268.223145 3707394.0 
268.961731 1819458.0 
274.177002 2436927.0 
274.820801 131.0 
276.112854 2380372.0 
277.003418 855316.0 
278.284546 1768997.0 
279.086914 4023408.0 
282.9104 850207.0 
285.085693 6697606.0 
286.338501 9947636.0 
287.256592 20.0 
291.708374 588507.0 
292.986328 2817250.0 
293.69397 61.0 
295.140869 2897114.0 
296.906982 3184903.0 
298.170166 1841334.0 
303.098999 10894378.0 
304.390625 908032.0 
307.09021 12447278.0 
307.937561 47.0 
310.172791 1793220.0 
314.992554 416111.0 
319.192139 1618710.0 
321.950012 2691260.0 
323.292786 10699596.0 
324.170288 45.0 
328.10083 3505703.0 
337.11908 3537993.0 
338.339294 5222614.0 
339.178345 4244170.0 
340.239868 1533798.0 
341.193115 3718686.0 
343.073853 10025092.0 
345.094666 2496665.0 
348.285645 9181110.0 
349.277832 1367166.0 
353.835083 334266.0 
356.164551 5630746.0 
357.241821 671980.0 
358.148438 473454.0 
361.052124 17071784.0 
361.855896 2702646.0 
364.395264 1992415.0 
365.23114 3332364.0 
365.961792 10824778.0 
367.140503 2576497.0 
367.826416 199.0 
370.039917 1242405.0 
371.125244 3462338.0 
372.083984 2510397.0 
375.020386 1713269.0 
376.021179 1037466.0 
378.158691 2878908.0 
379.836182 3713742.0 
380.539429 348.0 
382.227783 1916316.0 
383.08374 10350948.0 
383.924255 4156551.0 
386.930054 10124224.0 
388.21167 3562796.0 
389.050232 35124360.0 
389.969482 4290870.0 
394.120544 9693688.0 
394.907959 1302611.0 
397.057556 1650978.0 
398.095459 2568286.0 
400.212158 9609616.0 
400.973572 713973.0 
403.152954 1740103.0 
405.218262 4318599.0 
406.123169 5843711.0 
406.920166 9275256.0 
407.933411 556156.0 
412.169556 1654786.0 
412.962646 2992514.0 
414.035645 733890.0 
422.135376 2337325.0 
425.140625 3913756.0 
426.047668 1197794.0 
427.105713 6660215.0 
427.780884 49.0 
431.37915 8728960.0 
432.029175 15560104.0 
433.224121 3554762.0 
433.955688 1963901.0 
435.82605 2069437.0 
440.129883 6128754.0 
441.549683 1949523.0 
443.825317 2238446.0 
445.22168 4333216.0 
446.258301 3141389.0 
448.175781 8002788.0 
449.515503 20204096.0 
450.295105 10939898.0 
451.172485 3099910.0 
452.305786 4016262.0 
453.368713 3762909.0 
454.27771 1174253.0 
456.258362 1201171.0 
458.990601 1129745.0 
463.290466 825131.0 
465.345764 3768184.0 
466.275269 15499828.0 
467.157593 11054128.0 
468.022095 8375005.0 
469.212646 7581528.0 
470.024597 327.0 
472.06842 4046647.0 
475.250244 2788833.0 
476.304932 1235111.0 
477.161804 1664944.0 
478.067627 1400701.0 
479.948547 2793575.0 
481.509399 412632.0 
485.124023 5651673.0 
485.933289 10.0 
487.486877 1039497.0 
488.424194 4180515.0 
489.714966 2292285.0 
490.347595 79.0 
491.322083 7014679.0 
492.256531 1356145.0 
493.213318 8010689.0 
494.246338 15987428.0 
495.315369 5414271.0 
496.012268 4240278.0 
500.237854 2116968.0 
505.555725 4648822.0 
506.191345 1336910.0 
507.44519 4259497.0 
508.615906 719593.0 
510.159424 2041204.0 
511.286987 11441610.0 
512.28833 8257908.0 
512.9104 1146828.0 
514.184326 660210.0 
517.054688 1606619.0 
517.959229 11087944.0 
518.668213 199.0 
519.572754 2728229.0 
522.147949 4050058.0 
523.0896 7941427.0 
524.148438 4722531.0 
526.207764 1943443.0 
527.21167 1716962.0 
528.133545 1684936.0 
528.938477 3226311.0 
529.697388 193.0 
531.172852 3376029.0 
533.118042 2026212.0 
534.827759 4279243.0 
535.540283 95.0 
536.37915 850789.0 
537.306396 5447208.0 
538.220703 22513648.0 
539.12915 4011709.0 
540.729004 10401844.0 
541.487061 13.0 
543.875488 502951.0 
545.463379 439169.0 
546.165771 5301970.0 
547.339111 640519.0 
550.349365 4016943.0 
551.156006 3340859.0 
552.101196 2709524.0 
554.41272 3651695.0 
555.371948 23512112.0 
556.154419 4091901.0 
556.932739 907016.0 
562.953857 2932351.0 
564.732178 2365319.0 
567.265137 1108619.0 
568.16687 11693460.0 
568.820068 2197236.0 
569.515503 2599119.0 
570.165894 5182727.0 
571.279541 4486296.0 
573.141235 676507.0 
579.326904 2098997.0 
581.938965 11412940.0 
582.900635 96.0 
585.394165 2655078.0 
586.110229 7232738.0 
586.824951 301.0 
588.604614 1512856.0 
594.99292 12163480.0 
596.169678 2729637.0 
596.988037 660159.0 
598.302002 4699312.0 
599.278809 30911184.0 
600.29834 9288380.0 
602.392578 2524530.0 
605.926025 1358597.0 
607.326904 928000.0 
610.154297 11951556.0 
611.074707 6940986.0 
612.050049 1745322.0 
613.319702 13645704.0 
614.291016 6307741.0 
614.95752 2413820.0 
617.182007 6889937.0 
618.288818 1559987.0 
620.293701 810434.0 
621.087891 551704.0 
625.282471 5653554.0 
626.311768 391895.0 
628.246826 16927528.0 
629.197632 6756779.0 
630.314697 10263816.0 
631.20166 4896869.0 
632.237549 11402690.0 
633.22998 407979.0 
637.134033 2446180.0 
639.0979 3663683.0 
645.178955 1888687.0 
646.206543 5057034.0 
647.280029 5988356.0 
649.169434 512758.0 
650.363281 1129171.0 
652.110352 2810921.0 
654.357056 2076797.0 
655.224854 1018867.0 
656.080444 10308818.0 
657.152222 15539880.0 
658.212646 3233811.0 
664.328857 543915.0 
665.233154 1461336.0 
666.269531 2754838.0 
668.286133 4681022.0 
669.383911 514672.0 
673.577515 530956.0 
674.255859 75027712.0 
675.458618 11653904.0 
678.462646 1395564.0 
679.518433 1435107.0 
682.182617 9847236.0 
682.971924 4698626.0 
685.896606 703720.0 
688.407959 12179678.0 
689.043823 44.0 
690.348145 2095685.0 
691.326904 56503704.0 
692.109131 5243177.0 
693.052246 9847876.0 
693.717163 95.0 
694.552002 1513067.0 
695.522217 11404168.0 
696.394653 21193192.0 
697.388916 3837637.0 
698.149414 2103816.0 
701.989746 3747571.0 
702.609131 239.0 
706.260864 361372.0 
707.709229 1943386.0 
710.348389 6166346.0 
711.492432 783191.0 
712.935181 4998784.0 
713.894897 15255148.0 
714.77063 676244.0 
716.331055 1352532.0 
719.44043 2277956.0 
720.160522 2620393.0 
721.351196 3370740.0 
722.514893 2186615.0 
729.516724 1052786.0 
730.249023 8424240.0 
731.389771 1285539.0 
732.493286 9465708.0 
733.222778 9805826.0 
734.407227 2292846.0 
735.554199 1190278.0 
736.373535 18834288.0 
737.412354 5547679.0 
738.400513 1054795.0 
740.296753 18002360.0 
741.490112 3919084.0 
745.373901 733150.0 
747.187134 5542985.0 
748.15332 8850564.0 
749.254028 7237405.0 
749.943848 614.0 
751.343506 1770535.0 
753.396973 71085808.0 
754.200684 10032996.0 
758.410522 3920123.0 
759.311035 5874978.0 
760.160156 561.0 
762.583618 5791699.0 
763.389526 25077208.0 
764.486206 6337898.0 
765.189575 2301621.0 
766.100586 1933241.0 
775.202271 1217148.0 
776.319702 114416976.0 
777.346436 9456128.0 
778.097656 455.0 
779.233276 7216667.0 
780.37561 35251160.0 
781.338379 266457920.0 
782.428345 21577368.0 
783.28125 961.0 
789.097168 15134908.0 
790.287964 9179644.0 
791.211792 1870299.0 
793.279907 33475296.0 
794.296509 4294452.0 
794.942383 29.0 
797.31897 63240312.0 
798.307373 1960398.0 
806.233887 921370.0 
807.309448 94403712.0 
808.287598 140922816.0 
809.323486 18725032.0 
810.133301 1.0 
END IONS

