BEGIN IONS
PEPMASS=516.323
CHARGE=1+
MSLEVEL=2
SOURCE_INSTRUMENT=LC-ESI-qTof
FILENAME=2F2_CarmaphycinBenone_analogue_MH_516.mzXML
SEQ=*..*
IONMODE=Positive
ORGANISM=GNPS-LIBRARY
NAME=Carmaphycin B enone analogue M+H
PI=Dorrestein/Gerwick
DATACOLLECTOR=Luzzatto/Garg
SMILES=CC(C([C@H](CC(C)C)NC([C@H](CCS(=O)(C)=O)NC([C@H](C(C)C)NC(CCCCC)=O)=O)=O)=O)=C
INCHI=N/A
INCHIAUX=N/A
PUBMED=N/A
SUBMITUSER=tal_lk
LIBRARYQUALITY=2
SPECTRUMID=CCMSLIB00000070295
SCANS=1317
95.832047 228.0 
97.292412 148.0 
98.510918 224.0 
98.562263 144.0 
101.95462 212.0 
102.868668 236.0 
107.042671 240.0 
107.337219 200.0 
108.080528 220.0 
109.839485 244.0 
109.868675 192.0 
110.365547 220.0 
110.746269 212.0 
110.771393 156.0 
111.104568 172.0 
113.565292 156.0 
113.628906 172.0 
114.110825 184.0 
114.892113 196.0 
116.149437 196.0 
116.211624 176.0 
116.409019 200.0 
118.47879 176.0 
118.60659 148.0 
120.802849 144.0 
120.949402 192.0 
121.240578 216.0 
121.330406 196.0 
121.516747 148.0 
121.712013 196.0 
122.699501 176.0 
122.851608 184.0 
124.116165 208.0 
128.145309 228.0 
129.126099 188.0 
130.733932 180.0 
130.793076 224.0 
132.534866 148.0 
133.340012 200.0 
133.493973 192.0 
133.80217 176.0 
135.052368 176.0 
136.043686 2016.0 
136.487305 188.0 
136.866425 144.0 
137.0457 172.0 
137.516571 172.0 
137.791992 252.0 
137.976547 232.0 
138.041931 224.0 
138.12764 1184.0 
138.732407 152.0 
138.819122 256.0 
139.10994 388.0 
139.132645 248.0 
139.626648 156.0 
140.695969 184.0 
144.444412 172.0 
144.504196 144.0 
144.736267 224.0 
144.911041 152.0 
147.016586 236.0 
149.132462 160.0 
149.35849 192.0 
150.333908 200.0 
154.451172 188.0 
154.62677 164.0 
155.121002 260.0 
155.317749 212.0 
156.112244 176.0 
156.138428 11996.0 
156.415588 236.0 
157.141052 1264.0 
158.105255 188.0 
158.14183 160.0 
158.40892 172.0 
160.608505 196.0 
165.647141 208.0 
166.082718 208.0 
167.115005 164.0 
168.33371 156.0 
168.462799 176.0 
168.563522 176.0 
169.379288 252.0 
169.453232 140.0 
169.733047 168.0 
169.976776 184.0 
170.155014 2856.0 
170.290771 160.0 
170.672623 156.0 
171.159943 524.0 
172.162811 220.0 
173.080872 156.0 
173.166382 216.0 
174.039276 168.0 
175.014374 140.0 
176.144135 180.0 
178.601471 248.0 
179.567917 212.0 
180.678665 248.0 
181.830399 200.0 
182.603836 196.0 
183.268463 176.0 
185.472778 148.0 
186.571716 200.0 
187.870193 176.0 
190.088211 172.0 
191.055435 208.0 
192.026901 196.0 
193.172104 840.0 
195.953293 256.0 
197.77327 140.0 
197.97757 220.0 
198.149551 4320.0 
198.350037 140.0 
198.582672 184.0 
199.154114 592.0 
200.029129 184.0 
203.204285 232.0 
203.845718 160.0 
204.137985 396.0 
204.564987 184.0 
205.140182 556.0 
207.039444 164.0 
211.015472 272.0 
214.729889 216.0 
215.129471 200.0 
217.631607 204.0 
219.525818 192.0 
220.431686 160.0 
221.164749 548.0 
226.950867 176.0 
228.24147 216.0 
229.686447 176.0 
230.081604 236.0 
230.265717 196.0 
230.468033 248.0 
231.117371 156.0 
231.60202 196.0 
231.950333 208.0 
232.744858 152.0 
233.877914 144.0 
235.112183 176.0 
236.113815 164.0 
237.132904 208.0 
238.473587 148.0 
241.197205 204.0 
241.796997 164.0 
243.992218 208.0 
246.084991 160.0 
247.732468 176.0 
252.382187 188.0 
252.676208 228.0 
253.895203 144.0 
255.571747 176.0 
256.13501 184.0 
257.135742 192.0 
258.403839 232.0 
259.187958 232.0 
259.517944 144.0 
260.740479 288.0 
261.885376 228.0 
263.107239 200.0 
264.933441 224.0 
265.302734 156.0 
266.63623 228.0 
267.167267 200.0 
272.722748 212.0 
273.126984 196.0 
273.164703 360.0 
276.33551 152.0 
276.967529 216.0 
279.662537 260.0 
280.848206 152.0 
280.914917 236.0 
281.725769 152.0 
284.132172 272.0 
284.359894 180.0 
284.675323 156.0 
284.960724 284.0 
286.140747 212.0 
287.083801 164.0 
291.68988 176.0 
292.495728 160.0 
292.529755 244.0 
294.376923 152.0 
296.976837 204.0 
299.860291 220.0 
299.984314 184.0 
300.577271 180.0 
301.159576 5592.0 
301.445374 160.0 
301.571472 144.0 
302.163177 712.0 
303.126862 172.0 
303.159271 596.0 
303.458191 152.0 
304.549988 152.0 
305.327393 144.0 
306.849213 160.0 
308.936768 148.0 
309.430023 240.0 
310.961243 212.0 
313.340881 228.0 
315.146545 152.0 
318.056366 204.0 
318.514221 148.0 
318.58725 176.0 
319.004639 200.0 
319.036377 212.0 
319.068359 172.0 
319.170258 47020.0 
319.285583 124.0 
319.610321 216.0 
319.744659 324.0 
319.86377 100.0 
320.10556 140.0 
320.172394 7212.0 
320.463409 144.0 
320.554993 108.0 
320.62973 176.0 
320.703644 236.0 
320.783539 188.0 
321.169067 1972.0 
321.3479 112.0 
321.646423 204.0 
322.010468 140.0 
322.1745 312.0 
322.50351 136.0 
323.178925 156.0 
323.565277 144.0 
329.590881 148.0 
331.051697 224.0 
333.179932 176.0 
335.041351 160.0 
339.546875 156.0 
341.036896 168.0 
343.174927 164.0 
344.174316 212.0 
360.216614 212.0 
360.269501 164.0 
360.394104 152.0 
360.941956 144.0 
361.180328 11164.0 
361.756714 128.0 
362.18335 2700.0 
363.178864 696.0 
364.178558 196.0 
364.260559 148.0 
366.247345 172.0 
367.22699 288.0 
368.231628 144.0 
370.097015 172.0 
391.844269 168.0 
394.882538 152.0 
403.236298 208.0 
403.316223 168.0 
411.221527 144.0 
418.236603 144.0 
419.240204 332.0 
419.688416 208.0 
420.255127 152.0 
426.690887 224.0 
433.627686 124.0 
437.147247 204.0 
437.190094 224.0 
442.190643 228.0 
471.787323 144.0 
473.699249 220.0 
474.340302 160.0 
497.986755 264.0 
498.298889 368.0 
499.29657 268.0 
501.308319 148.0 
503.77948 224.0 
504.288666 232.0 
513.804504 220.0 
514.242554 136.0 
514.318726 140.0 
514.905457 204.0 
516.310547 852.0 
517.255615 208.0 
517.314148 820.0 
517.450195 204.0 
518.317505 196.0 
519.334534 196.0 
520.019348 180.0 
570.237244 188.0 
637.561951 164.0 
1464.78479 148.0 
1552.120605 220.0 
1596.522217 244.0 
1624.169189 200.0 
1665.252563 176.0 
1703.045532 196.0 
1809.478027 208.0 
1834.342163 228.0 
1913.188232 168.0 
1938.559814 148.0 
1974.675537 256.0 
1977.160645 188.0 
END IONS

