BEGIN IONS
PEPMASS=862.38
CHARGE=0+
MSLEVEL=2
SOURCE_INSTRUMENT=LC-ESI-qTof
FILENAME=f.evgenia_glukhov/3L-Oscillatoria_10.mzXML;
SEQ=*..*
IONMODE=Positive
ORGANISM=GNPS-LIBRARY
NAME=Viridamide A M+H
PI=Gerwick
DATACOLLECTOR=Jenia
SMILES=CC[C@H](C)[C@@H](C(=O)N[C@@H](C(C)C)C(=O)N[C@@H](C(C)C)C(=O)N(C)[C@@H](C(C)C)C(=O)O[C@@H]([C@@H](C)CC)C(=O)N1CCC[C@H]1C(=O)OC)N(C)C(=O)CCCC(CCCC#C)OC
INCHI=
INCHIAUX=
PUBMED=18715036
SUBMITUSER=evgenia_glukhov
LIBRARYQUALITY=3
SPECTRUMID=CCMSLIB00000424800
SCANS=714
308.906372 2404.0 
454.112549 59248.0 
583.128906 73662.0 
583.800049 2.0 
633.94751 18277.0 
733.008911 32009.0 
733.62207 3.0 
END IONS

