BEGIN IONS
PEPMASS=522.312
CHARGE=1+
MSLEVEL=2
SOURCE_INSTRUMENT=LC-ESI-qTof
FILENAME=2F1_CarmaphycinAenone_analogue_MNa_522.mzXML
SEQ=*..*
IONMODE=Positive
ORGANISM=GNPS-LIBRARY
NAME=Carmaphycin A enone analogue M+Na
PI=Dorrestein/Gerwick
DATACOLLECTOR=Luzzatto/Garg
SMILES=CC(C([C@H](CC(C)C)NC([C@H](CCS(C)=O)NC([C@H](C(C)C)NC(CCCCC)=O)=O)=O)=O)=C
INCHI=N/A
INCHIAUX=N/A
PUBMED=N/A
SUBMITUSER=tal_lk
LIBRARYQUALITY=2
SPECTRUMID=CCMSLIB00000070294
SCANS=1157
95.034729 208.0 
99.064102 216.0 
107.964211 204.0 
112.688705 200.0 
116.228218 232.0 
123.023064 304.0 
124.038002 196.0 
125.061554 192.0 
130.169769 204.0 
132.969757 276.0 
134.060165 260.0 
134.186111 240.0 
135.061462 292.0 
136.067535 200.0 
137.08139 464.0 
138.086899 392.0 
141.217285 216.0 
147.216156 248.0 
150.076401 208.0 
150.328766 212.0 
151.100006 228.0 
151.289612 196.0 
155.905167 256.0 
161.802505 204.0 
164.060074 192.0 
164.103683 620.0 
167.754105 228.0 
171.004623 192.0 
173.894104 200.0 
176.104828 216.0 
176.897751 260.0 
176.950684 308.0 
177.061264 596.0 
177.093735 456.0 
178.121964 536.0 
179.074173 192.0 
179.12355 208.0 
181.81073 208.0 
183.849777 204.0 
184.830292 248.0 
186.052139 196.0 
188.920593 208.0 
189.358368 220.0 
190.08728 252.0 
190.121399 412.0 
191.084854 192.0 
192.135742 2756.0 
193.080536 208.0 
193.141251 1008.0 
194.151855 260.0 
195.55986 264.0 
198.150528 200.0 
200.225159 260.0 
201.844299 196.0 
203.200455 192.0 
205.05545 228.0 
205.107834 220.0 
205.142029 200.0 
205.769394 208.0 
206.114853 280.0 
210.522461 256.0 
215.540054 220.0 
215.671509 204.0 
218.115082 224.0 
218.214981 192.0 
219.117538 440.0 
219.143372 680.0 
221.139053 380.0 
221.649231 200.0 
223.894089 204.0 
229.896439 236.0 
230.33403 196.0 
230.614914 200.0 
232.134628 232.0 
232.291702 196.0 
233.129074 368.0 
233.159531 548.0 
234.163773 200.0 
234.601868 208.0 
235.146088 332.0 
235.185959 212.0 
236.140182 196.0 
236.911224 216.0 
237.125626 224.0 
237.153549 216.0 
237.635986 288.0 
238.142456 364.0 
246.639709 232.0 
247.177902 216.0 
247.374405 192.0 
247.634186 220.0 
247.784485 192.0 
248.633896 200.0 
249.154297 264.0 
250.165833 216.0 
251.023743 216.0 
251.153 208.0 
251.414749 220.0 
251.837631 228.0 
252.033417 208.0 
254.534714 212.0 
255.704102 196.0 
256.735931 220.0 
257.057953 208.0 
257.517456 208.0 
259.965576 228.0 
261.119537 356.0 
261.157043 1688.0 
261.19577 212.0 
261.243805 224.0 
262.123535 276.0 
263.171265 988.0 
263.299377 236.0 
264.127655 260.0 
267.268799 232.0 
267.542053 284.0 
269.12265 224.0 
270.201569 192.0 
271.142517 472.0 
272.061432 228.0 
272.126129 256.0 
274.594025 256.0 
275.173767 2412.0 
276.128937 380.0 
276.177002 504.0 
276.668274 204.0 
277.149414 832.0 
277.186707 2732.0 
277.840973 244.0 
278.155487 304.0 
278.192719 468.0 
278.647369 468.0 
282.402679 196.0 
283.406525 224.0 
284.019775 224.0 
284.25116 212.0 
284.882111 224.0 
285.155304 372.0 
286.074432 220.0 
286.161377 200.0 
286.499542 220.0 
287.153198 228.0 
288.239777 220.0 
289.162598 252.0 
290.162018 320.0 
290.19754 256.0 
291.630707 196.0 
291.736053 192.0 
292.207275 220.0 
293.146118 204.0 
293.451172 204.0 
293.873932 196.0 
294.177551 576.0 
294.511108 208.0 
295.113251 192.0 
295.171356 240.0 
300.534424 208.0 
302.161072 208.0 
303.166779 2100.0 
304.166992 404.0 
304.438263 212.0 
304.920105 272.0 
305.041687 196.0 
306.175507 516.0 
307.224213 224.0 
307.845245 200.0 
309.383026 192.0 
310.191895 204.0 
313.455566 192.0 
313.698639 236.0 
314.650757 208.0 
315.704742 272.0 
315.922485 212.0 
316.166504 204.0 
317.097565 240.0 
317.184418 748.0 
318.044159 200.0 
318.179901 336.0 
320.193481 800.0 
321.17514 528.0 
321.206146 248.0 
322.18399 208.0 
323.582611 192.0 
324.501984 248.0 
324.727814 264.0 
327.281799 192.0 
329.18808 244.0 
329.217377 252.0 
331.202118 212.0 
332.151306 372.0 
332.193756 1784.0 
332.590271 236.0 
333.162476 1000.0 
333.197815 444.0 
333.713257 216.0 
334.169708 204.0 
334.197601 376.0 
335.174225 540.0 
335.936584 272.0 
336.038696 208.0 
336.794037 224.0 
337.71109 248.0 
338.245056 200.0 
341.145477 208.0 
341.221405 344.0 
341.932281 196.0 
345.211884 1248.0 
346.175079 228.0 
346.210846 1204.0 
347.172638 216.0 
347.217499 624.0 
348.176483 348.0 
349.500519 248.0 
350.02887 200.0 
350.174042 224.0 
351.72995 248.0 
351.892395 268.0 
352.015564 240.0 
354.719452 212.0 
355.401703 200.0 
357.238098 240.0 
359.501587 200.0 
360.190277 888.0 
360.226471 936.0 
360.603882 284.0 
360.649231 236.0 
361.193604 592.0 
361.231689 300.0 
361.518738 328.0 
362.048492 200.0 
362.146912 220.0 
362.241394 2688.0 
362.912109 200.0 
363.246765 1356.0 
363.397369 264.0 
363.662903 244.0 
364.248016 332.0 
367.16684 892.0 
370.095215 216.0 
370.213867 200.0 
371.202118 204.0 
373.270996 224.0 
374.205627 548.0 
374.944885 220.0 
375.211945 996.0 
375.557648 224.0 
376.221924 384.0 
376.257111 232.0 
376.375427 256.0 
377.217316 316.0 
382.501343 200.0 
383.592499 264.0 
385.445557 192.0 
386.571289 200.0 
387.26001 220.0 
387.506714 292.0 
387.769135 192.0 
388.217773 3708.0 
388.725647 208.0 
389.220947 1348.0 
390.233063 428.0 
390.272888 992.0 
390.516327 248.0 
390.724731 212.0 
391.273651 408.0 
392.240051 296.0 
392.523956 256.0 
394.382629 220.0 
395.568787 216.0 
396.225891 256.0 
397.621094 192.0 
397.791687 192.0 
398.233093 448.0 
399.440094 212.0 
400.371277 200.0 
401.133636 212.0 
401.217865 248.0 
401.410706 244.0 
402.238281 224.0 
402.830963 212.0 
403.245544 340.0 
405.510712 216.0 
405.767151 224.0 
407.263885 200.0 
407.966217 200.0 
408.561157 200.0 
408.750183 232.0 
408.854767 212.0 
409.233002 220.0 
412.006592 268.0 
413.595154 196.0 
414.261688 380.0 
414.805786 456.0 
416.251312 3324.0 
416.312286 272.0 
416.817963 208.0 
417.254242 948.0 
417.314453 220.0 
418.253052 408.0 
418.320282 200.0 
420.261261 204.0 
420.760742 220.0 
422.220795 212.0 
422.277649 244.0 
423.282257 192.0 
423.780121 200.0 
427.132751 216.0 
428.774902 260.0 
429.153992 196.0 
431.275085 564.0 
432.085144 204.0 
432.272003 224.0 
432.337433 200.0 
432.896088 208.0 
433.177582 200.0 
434.777374 240.0 
437.29071 252.0 
437.336456 196.0 
439.656921 196.0 
440.287384 2940.0 
440.480865 208.0 
440.955231 196.0 
441.294525 1192.0 
442.109009 272.0 
442.221039 196.0 
442.368408 324.0 
442.555267 216.0 
443.800629 200.0 
444.2836 340.0 
446.781311 236.0 
447.113586 220.0 
447.248199 188.0 
447.791107 204.0 
449.60321 196.0 
449.929077 188.0 
450.633087 224.0 
451.342896 192.0 
455.285645 260.0 
455.371796 284.0 
455.7883 412.0 
457.250275 216.0 
457.933533 188.0 
458.022217 212.0 
458.29895 61152.0 
458.439758 252.0 
458.573273 312.0 
458.713928 224.0 
458.792023 204.0 
458.856781 196.0 
459.007111 188.0 
459.149048 216.0 
459.302155 19448.0 
459.44751 260.0 
459.671631 224.0 
460.304108 2492.0 
461.029724 192.0 
461.311371 500.0 
463.022644 236.0 
465.21814 232.0 
467.052216 248.0 
467.155426 212.0 
467.761902 196.0 
468.041626 240.0 
469.743286 212.0 
471.862823 196.0 
473.766235 240.0 
474.398651 228.0 
474.45932 192.0 
475.263336 192.0 
475.691315 248.0 
476.294159 228.0 
477.441101 240.0 
477.545441 244.0 
478.789642 212.0 
479.046509 188.0 
479.342651 348.0 
480.301392 236.0 
480.484528 208.0 
480.532501 216.0 
480.72876 236.0 
480.864014 188.0 
481.016724 200.0 
481.470612 204.0 
481.889465 276.0 
482.081085 300.0 
486.144104 256.0 
486.828644 204.0 
487.118408 288.0 
487.288147 976.0 
487.787903 936.0 
488.216736 228.0 
488.286713 740.0 
488.794861 312.0 
489.273773 268.0 
489.833252 212.0 
489.884186 196.0 
490.268829 204.0 
492.105988 204.0 
492.505341 232.0 
492.874298 200.0 
494.071899 260.0 
494.509766 216.0 
495.340607 268.0 
497.278687 228.0 
498.006531 268.0 
502.303497 192.0 
503.259155 192.0 
503.319977 300.0 
504.670471 228.0 
505.282959 360.0 
506.715027 196.0 
506.776733 200.0 
507.270294 736.0 
507.794891 196.0 
510.78952 208.0 
510.941132 224.0 
511.281525 192.0 
511.441711 192.0 
511.869232 228.0 
512.252869 204.0 
512.295532 196.0 
512.801392 204.0 
513.03656 256.0 
513.306091 276.0 
513.531433 232.0 
514.207947 248.0 
514.568909 204.0 
514.612 192.0 
515.630005 200.0 
515.798645 208.0 
516.273376 192.0 
517.02478 192.0 
517.683044 216.0 
518.697449 228.0 
518.911499 208.0 
519.287903 2468.0 
519.504333 276.0 
519.58136 220.0 
519.684387 208.0 
519.789124 1844.0 
520.290588 2020.0 
520.35376 240.0 
520.721558 192.0 
520.786377 652.0 
520.852966 216.0 
521.03595 268.0 
521.095642 336.0 
521.177429 304.0 
521.288452 384.0 
521.557861 208.0 
521.604919 216.0 
521.667114 256.0 
521.881042 196.0 
521.936951 212.0 
521.990112 292.0 
522.053467 316.0 
522.105408 380.0 
522.154968 188.0 
522.193726 204.0 
522.298462 157268.0 
522.530151 240.0 
522.622559 444.0 
522.723389 412.0 
522.876831 388.0 
522.953674 224.0 
523.050293 2232.0 
523.173889 512.0 
523.185364 288.0 
523.20282 228.0 
523.301147 72204.0 
523.519165 240.0 
523.696533 228.0 
523.795288 208.0 
523.837341 316.0 
523.966614 208.0 
524.046631 236.0 
524.143433 284.0 
524.153687 228.0 
524.19989 256.0 
524.297974 22588.0 
524.511841 332.0 
524.694092 216.0 
524.743164 256.0 
525.296265 3584.0 
525.780884 280.0 
526.296814 344.0 
526.386963 268.0 
526.563538 256.0 
526.825256 204.0 
526.904724 336.0 
527.249512 248.0 
527.72467 188.0 
542.998962 300.0 
544.282776 832.0 
855.623779 188.0 
1156.298706 224.0 
1437.057251 208.0 
1632.357788 232.0 
1775.29834 192.0 
1956.108887 232.0 
END IONS

