BEGIN IONS
PEPMASS=862.36
CHARGE=1+
MSLEVEL=2
SOURCE_INSTRUMENT=LC-ESI-qTof
FILENAME=f.evgenia_glukhov/Standards/2223H4-6-Apratoxin_A.mzXML;
SEQ=*..*
IONMODE=Positive
ORGANISM=GNPS-LIBRARY
NAME=Apratoxin A M+Na
PI=W. Gerwick
DATACOLLECTOR=Daojing Zhang
SMILES=[H]N1[C@@H](Cc2ccc(OC)cc2)C(=O)N(C)[C@@H](C)C(=O)N(C)[C@@H]([C@@H](C)CC)C(=O)N2CCC[C@H]2C(=O)O[C@@H](C[C@@H](C)C[C@H](O)[C@H](C)C2=N[C@H](CS2)\C=C(C)\C1=O)C(C)(C)C
INCHI=
INCHIAUX=
PUBMED=
SUBMITUSER=evgenia_glukhov
LIBRARYQUALITY=3
SPECTRUMID=CCMSLIB00000478599
SCANS=760
270.090759 7383.0 
327.911499 4578.0 
330.951172 21519.0 
345.030762 1117.0 
358.948608 56976.0 
372.381348 2592.0 
379.758301 1622.0 
390.317871 1023.0 
397.11792 185763.0 
397.866638 3.0 
426.102173 9158.0 
436.01416 4671.0 
443.946533 201096.0 
444.633301 6.0 
451.0802 5070.0 
453.35144 1153.0 
457.978882 2937.0 
464.255615 31988.0 
482.101624 294738.0 
482.822144 6.0 
484.936584 1911.0 
494.94751 3713.0 
511.150208 5216.0 
513.14209 15134.0 
535.700684 1316.0 
536.378296 3500.0 
537.002319 1695.0 
570.339355 15358.0 
571.050537 610334.0 
571.800049 1.0 
579.956665 25374.0 
585.2229 4720.0 
598.07373 26643.0 
610.194336 22027.0 
627.675537 5078.0 
628.282227 15629.0 
641.059326 1966.0 
707.188477 27408.0 
723.205566 3015.0 
725.169189 79966.0 
735.350464 6608.0 
737.296387 16452.0 
753.164551 2093.0 
754.928345 2993.0 
778.077148 19391.0 
794.233398 1880.0 
795.892944 2462.0 
809.329102 3900.0 
822.185181 422284.0 
END IONS

