BEGIN IONS
PEPMASS=770.55
CHARGE=1+
MSLEVEL=2
SOURCE_INSTRUMENT=LC-ESI-Ion Trap
FILENAME=f.evgenia_glukhov/Microcolins/MA-770.mzXML;
SEQ=*..*
IONMODE=Positive
ORGANISM=GNPS-LIBRARY
NAME=Microcolin A M+Na
PI=Gerwick
DATACOLLECTOR=HaoBing Yu
SMILES=CN(C([C@H](C)C[C@H](C)CCCC)=O)[C@@H](CC(C)C)C(N[C@@H]([C@@H](C)OC(C)=O)C(N(C)[C@@H](C(C)C)C(N1[C@H](C(N2C(C=C[C@@H]2C)=O)=O)C[C@H](O)C1)=O)=O)=O
INCHI=
INCHIAUX=
PUBMED=1517734
SUBMITUSER=evgenia_glukhov
LIBRARYQUALITY=3
SPECTRUMID=CCMSLIB00005435621
SCANS=504
271.004639 51956.0 
282.178589 94457.0 
304.093994 21416.0 
346.233521 237183.0 
346.866638 5.0 
364.828613 243464.0 
365.538086 14.0 
386.274353 18302.0 
387.027222 348115.0 
392.094116 83479.0 
392.733276 1.0 
419.422485 174032.0 
429.343628 197378.0 
447.14624 289665.0 
447.838013 7.0 
449.835815 85988.0 
450.468689 251433.0 
451.369385 41150.0 
457.839661 222794.0 
478.124084 149195.0 
478.799988 13.0 
489.024658 197565.0 
499.09198 42622.0 
501.284302 21690.0 
541.547363 349118.0 
560.100586 167025.0 
569.408447 353904.0 
612.701172 356762.0 
613.343506 3515505.0 
614.494629 123122.0 
615.102539 13.0 
629.432617 2555794.0 
630.466797 67411.0 
635.312988 223600.0 
655.662964 89734.0 
666.382812 133515.0 
672.789673 501320.0 
673.390381 38351168.0 
674.408203 5450465.0 
675.226196 33.0 
692.036499 213412.0 
693.660034 19072.0 
709.821777 1154797.0 
710.500732 20829640.0 
711.492676 967697.0 
712.09729 39.0 
714.037842 45771.0 
715.262085 220195.0 
715.996216 18.0 
752.726929 181017.0 
753.364868 54066.0 
770.390747 135345.0 
771.235596 152932.0 
END IONS

