BEGIN IONS
PEPMASS=771.393
CHARGE=1+
MSLEVEL=2
SOURCE_INSTRUMENT=LC-ESI-qTof
FILENAME=1A10_HoiamideC_MH_771.mzXML
SEQ=*..*
IONMODE=Positive
ORGANISM=GNPS-LIBRARY
NAME=Hoiamide C M+H
PI=Dorrestein/Gerwick
DATACOLLECTOR=Luzzatto/Garg
SMILES=CCC[C@@H](C)[C@H](O)[C@H](C)[C@@H](O)[C@@H](C)[C@H](CC1=NC(=CS1)C1=N[C@](C)(CS1)C1=N[C@](C)(CS1)C(=O)N[C@@H]([C@@H](C)CC)[C@@H](O)[C@@H](C)C(=O)OCC)OC
INCHI=InChI=1S/C37H62N4O7S3/c1-12-15-21(5)29(42)23(7)30(43)22(6)26(47-11)16-27-38-25(17-49-27)32-40-37(10,19-50-32)35-41-36(9,18-51-35)34(46)39-28(20(4)13-2)31(44)24(8)33(45)48-14-3/h17,20-24,26,28-31,42-44H,12-16,18-19H2,1-11H3,(H,39,46)/t20-,21+,22-,23-,24+,26-,28-,29-,30-,31-,36+,37+/m0/s1
INCHIAUX=STGNMXQTWDOGSE-FUVSMVGWSA-N
PUBMED=20687534
SUBMITUSER=tal_lk
LIBRARYQUALITY=2
SPECTRUMID=CCMSLIB00000070256
SCANS=3012
100.018936 356.0 
103.382591 184.0 
107.084663 168.0 
117.865593 156.0 
121.10025 224.0 
123.119667 152.0 
125.094452 208.0 
137.093643 176.0 
140.052673 236.0 
141.132614 196.0 
145.037109 260.0 
145.898544 256.0 
154.122665 232.0 
158.970596 220.0 
160.574997 192.0 
163.147186 320.0 
163.479675 180.0 
171.002243 196.0 
172.02655 964.0 
172.130615 340.0 
175.448349 168.0 
176.847809 264.0 
178.864273 192.0 
181.154495 192.0 
183.137573 308.0 
184.136276 140.0 
193.047958 176.0 
195.001678 152.0 
197.017914 344.0 
199.598587 168.0 
200.019409 176.0 
202.878052 208.0 
203.910843 180.0 
209.033615 188.0 
211.001404 192.0 
217.043472 140.0 
219.531708 232.0 
220.024261 188.0 
221.067215 204.0 
225.007324 184.0 
226.947983 164.0 
226.980942 228.0 
228.151428 180.0 
237.050613 176.0 
239.028992 468.0 
240.783646 220.0 
252.019302 220.0 
261.055969 144.0 
265.044434 264.0 
265.068604 260.0 
267.045471 380.0 
270.114471 184.0 
275.06781 180.0 
275.797485 224.0 
276.071808 176.0 
277.082916 476.0 
278.050476 292.0 
278.091187 264.0 
279.089142 404.0 
280.052795 200.0 
281.133331 332.0 
282.154236 216.0 
283.244751 140.0 
288.914734 180.0 
290.080231 208.0 
293.102753 144.0 
295.064514 196.0 
295.098694 184.0 
295.180725 172.0 
297.070526 176.0 
297.11853 224.0 
297.430695 284.0 
298.079529 164.0 
298.722198 140.0 
299.327698 192.0 
299.575562 204.0 
300.16037 156.0 
301.14093 140.0 
305.162567 216.0 
307.087524 168.0 
307.111938 184.0 
308.095917 180.0 
309.115326 320.0 
310.07312 376.0 
310.114136 168.0 
311.090942 252.0 
312.02652 196.0 
315.11264 212.0 
316.095184 196.0 
320.054962 200.0 
323.06601 220.0 
323.137512 216.0 
325.098969 180.0 
325.132599 196.0 
327.162628 348.0 
328.94632 188.0 
330.10199 172.0 
336.063934 208.0 
336.115021 212.0 
338.039948 196.0 
338.069061 180.0 
341.035034 196.0 
345.188232 180.0 
347.161194 232.0 
351.094147 184.0 
353.057739 164.0 
353.125092 216.0 
354.130493 148.0 
356.835907 192.0 
359.159271 1252.0 
359.829926 224.0 
360.155853 128.0 
361.154785 196.0 
362.919556 224.0 
363.090393 144.0 
364.061798 180.0 
364.107086 200.0 
364.160248 148.0 
366.19043 180.0 
366.837921 180.0 
369.048859 212.0 
371.141235 196.0 
372.155518 96.0 
372.241882 180.0 
373.167542 208.0 
375.125641 184.0 
376.113647 188.0 
377.101776 164.0 
377.172272 1160.0 
377.580994 144.0 
378.175262 624.0 
378.706818 228.0 
378.98175 176.0 
379.171539 208.0 
384.049011 164.0 
385.082916 156.0 
385.157104 172.0 
386.174133 376.0 
386.212006 196.0 
390.164246 176.0 
391.165894 164.0 
391.201324 176.0 
393.171783 124.0 
394.142334 168.0 
395.183258 204.0 
396.099884 196.0 
399.183105 260.0 
405.117676 144.0 
406.429504 172.0 
406.878845 184.0 
408.111786 176.0 
409.081055 220.0 
409.19574 584.0 
410.203613 180.0 
411.195129 188.0 
414.588013 156.0 
417.054596 192.0 
418.191071 260.0 
418.278442 164.0 
421.086609 188.0 
421.115204 200.0 
423.113983 140.0 
430.90802 216.0 
440.192505 148.0 
441.104095 328.0 
443.198792 152.0 
444.200378 160.0 
447.805328 156.0 
458.173096 228.0 
459.180664 160.0 
460.183075 188.0 
460.212952 236.0 
476.160034 172.0 
476.194183 452.0 
477.216339 332.0 
479.157501 188.0 
479.209778 144.0 
485.16864 160.0 
490.194824 184.0 
490.234467 156.0 
491.202209 180.0 
493.159332 152.0 
496.211273 196.0 
497.128448 244.0 
498.892822 172.0 
499.177368 192.0 
503.205109 328.0 
503.940369 148.0 
504.210663 220.0 
504.932343 176.0 
505.1362 180.0 
505.187195 148.0 
506.140106 164.0 
506.195953 176.0 
507.179047 192.0 
507.214905 168.0 
508.222656 160.0 
509.861908 220.0 
517.237793 164.0 
519.207947 180.0 
521.213867 200.0 
522.211853 252.0 
524.242981 176.0 
531.235413 168.0 
532.502014 160.0 
534.142212 220.0 
535.221436 400.0 
535.319946 140.0 
537.22406 156.0 
541.208191 156.0 
551.187378 140.0 
551.986633 160.0 
553.234863 188.0 
558.211426 144.0 
559.208374 148.0 
561.256775 144.0 
563.271179 156.0 
566.889099 156.0 
567.194336 236.0 
569.88678 208.0 
575.204163 192.0 
575.25885 440.0 
575.323486 148.0 
576.23053 196.0 
576.274658 312.0 
577.02832 140.0 
577.209961 144.0 
578.190247 172.0 
581.227051 120.0 
583.208923 628.0 
584.216675 224.0 
585.234253 180.0 
592.219299 216.0 
593.018433 204.0 
595.258972 144.0 
597.221436 148.0 
597.255493 180.0 
603.231018 160.0 
605.29071 148.0 
605.344727 168.0 
607.244751 216.0 
609.218811 240.0 
610.229187 276.0 
611.222351 192.0 
613.31073 176.0 
616.832581 228.0 
618.340515 196.0 
621.256104 1060.0 
621.327271 148.0 
622.255737 156.0 
623.230042 264.0 
623.27771 176.0 
625.253113 224.0 
630.335693 172.0 
631.285095 152.0 
631.885071 156.0 
633.296143 172.0 
634.297852 156.0 
639.323669 172.0 
641.259216 472.0 
641.342224 144.0 
642.25824 160.0 
642.330078 172.0 
643.251282 140.0 
645.329041 212.0 
646.309509 152.0 
647.731567 148.0 
649.327515 188.0 
651.224915 144.0 
651.275269 180.0 
651.463562 152.0 
652.31189 272.0 
653.282715 540.0 
654.286926 128.0 
655.24707 152.0 
657.344543 484.0 
658.214355 164.0 
658.301697 168.0 
658.368225 140.0 
659.300171 212.0 
659.347961 148.0 
667.891479 180.0 
675.313538 132.0 
675.360291 744.0 
676.36438 340.0 
677.287109 164.0 
677.372375 228.0 
677.794617 216.0 
685.314941 192.0 
687.301147 140.0 
688.898071 216.0 
689.313782 184.0 
689.3797 176.0 
690.377075 364.0 
690.941345 168.0 
691.374268 160.0 
693.392883 140.0 
702.056641 188.0 
703.33374 1084.0 
703.406738 172.0 
704.292297 156.0 
704.338684 260.0 
705.342041 376.0 
706.243103 200.0 
706.327454 160.0 
707.324463 136.0 
707.381531 796.0 
708.327759 140.0 
708.380493 216.0 
709.379944 168.0 
717.720154 228.0 
721.347961 136.0 
722.349304 360.0 
723.335632 96.0 
723.380981 220.0 
725.34613 180.0 
725.399963 412.0 
726.400024 160.0 
727.276367 160.0 
727.413818 148.0 
728.430359 164.0 
734.726257 224.0 
735.362793 668.0 
735.438293 140.0 
736.376831 304.0 
737.360596 172.0 
738.389893 160.0 
739.378052 176.0 
740.377869 160.0 
743.879028 144.0 
748.781555 152.0 
752.138794 148.0 
753.37384 696.0 
754.375793 300.0 
755.376343 388.0 
756.368164 140.0 
756.460876 196.0 
762.046997 244.0 
763.008423 176.0 
765.918335 164.0 
766.204651 200.0 
766.645325 168.0 
767.583984 168.0 
767.813538 160.0 
768.369263 148.0 
769.035706 108.0 
769.242065 140.0 
769.396301 180.0 
769.562134 140.0 
770.018005 168.0 
770.086487 156.0 
770.351562 172.0 
770.550598 164.0 
770.787842 156.0 
770.854248 168.0 
770.997742 184.0 
771.045532 168.0 
771.150024 132.0 
771.234802 160.0 
771.304688 300.0 
771.384399 15468.0 
771.520508 144.0 
771.752136 264.0 
771.833984 120.0 
772.226746 180.0 
772.314453 140.0 
772.387207 7956.0 
772.548828 288.0 
772.67804 176.0 
772.957642 100.0 
773.20636 236.0 
773.267639 320.0 
773.384827 4608.0 
773.55896 128.0 
773.809692 100.0 
774.275696 96.0 
774.387329 1104.0 
774.878357 108.0 
775.376404 312.0 
775.523193 160.0 
776.401367 120.0 
776.476746 132.0 
777.329224 236.0 
777.595764 128.0 
778.327209 148.0 
779.345215 144.0 
782.731262 140.0 
790.727844 140.0 
853.894287 180.0 
900.809631 160.0 
1059.755493 144.0 
1101.294189 140.0 
1209.499146 152.0 
1242.391724 140.0 
1363.581787 160.0 
1398.181519 156.0 
1792.876953 152.0 
END IONS

