BEGIN IONS
PEPMASS=579.0
CHARGE=0+
MSLEVEL=2
SOURCE_INSTRUMENT=LC-ESI-qTof
FILENAME=20130408_Jenia_Ger_Lyngbyabellin_K_MH579-qb.1.1..mgf
SEQ=*..*
IONMODE=Positive
ORGANISM=GNPS-LIBRARY
NAME=Lyngbyabellin K M+H
PI=Gerwick
DATACOLLECTOR=Jenia
SMILES=C[C@H]1[C@@H](OC(=O)C2=CSC(=N2)[C@@H](COC(=O)C3=CSC(=N3)[C@@H](OC1=O)C(C)C)O)CCCC(C)(Cl)Cl
INCHI=InChI=1S/C23H28Cl2N2O7S2/c1-11(2)17-19-27-13(9-36-19)21(30)32-8-15(28)18-26-14(10-35-18)22(31)33-16(12(3)20(29)34-17)6-5-7-23(4,24)25/h9-12,15-17,28H,5-8H2,1-4H3/t12-,15+,16-,17-/m0/s1
INCHIAUX=N/A
PUBMED=N/A
SUBMITUSER=mwang87
LIBRARYQUALITY=1
SPECTRUMID=CCMSLIB00000001757
SCANS=1
211.720673 343292.0 
219.711121 42242.0 
260.535645 341114.0 
319.761414 495693.0 
320.500122 2.0 
327.224121 301124.0 
348.629333 72728.0 
378.710266 66441.0 
382.055176 255074.0 
389.364014 322981.0 
390.033691 13099768.0 
390.997559 1753847.0 
391.817871 1.0 
408.818787 24255.0 
425.264465 57318.0 
510.457214 366644.0 
511.499207 95031.0 
518.967163 10403570.0 
519.914062 2144238.0 
520.782715 41.0 
549.003418 3062223.0 
549.982788 204433.0 
END IONS

