BEGIN IONS
PEPMASS=856.74
CHARGE=1+
MSLEVEL=2
SOURCE_INSTRUMENT=LC-ESI-qTof
FILENAME=f.evgenia_glukhov/Collection Extracts/#1396E.mzXML;
SEQ=*..*
IONMODE=Positive
ORGANISM=GNPS-LIBRARY
NAME=Aurilide B M+Na
PI=Gerwick
DATACOLLECTOR=Jenia
SMILES=C/C(=C\CC)C1OC(=O)C(C)[N@](C)C(=O)[C@@H](NC(=O)CN(C)C(=O)C([C@H](C)CC)[N@](C)C(=O)[C@@H](NC(=O)[C@H](OC(=O)C(\C)=C\C[C@H](O)[C@@H]1C)[C@@H](C)CC)C(C)C)C(C)C
INCHI=
INCHIAUX=
PUBMED=
SUBMITUSER=evgenia_glukhov
LIBRARYQUALITY=3
SPECTRUMID=CCMSLIB00000478603
SCANS=764
337.941895 1630.0 
392.085388 2348.0 
406.77356 927.0 
447.51123 3297.0 
448.493896 2380.0 
455.819702 1333.0 
463.413086 715.0 
485.392944 2762.0 
505.291138 1679.0 
532.018555 6259.0 
533.52771 17954.0 
534.570068 1482.0 
545.0802 3787.0 
556.0 2269.0 
565.084229 4884.0 
574.374268 10916.0 
575.002441 1.0 
576.675903 1520.0 
583.652588 3963.0 
590.099976 3563.0 
591.523193 3325.0 
601.457764 1791.0 
614.606689 3191.0 
615.766113 3610.0 
618.444092 16614.0 
619.536865 1649.0 
627.425903 3170.0 
628.414062 6342.0 
632.342407 2517.0 
634.209717 3371.0 
636.605713 2641.0 
643.444336 2363.0 
645.435913 452.0 
646.443481 1872.0 
647.622314 3011.0 
654.593018 38826.0 
655.571533 5996.0 
657.390137 3217.0 
661.497925 28897.0 
662.50293 7122.0 
671.88208 3204.0 
672.501831 199116.0 
673.515503 479984.0 
674.478027 102699.0 
676.104492 1291.0 
677.141113 2475.0 
686.623657 774.0 
707.426636 1188.0 
717.608643 629.0 
718.751465 1181.0 
724.633545 8488.0 
725.516357 47351.0 
726.530273 14860.0 
728.508911 2078.0 
742.059326 2819.0 
742.737427 1484.0 
746.48584 18173.0 
747.480957 11081.0 
753.541382 418919.0 
754.522949 139600.0 
755.225952 1.0 
757.422852 162845.0 
758.447632 327844.0 
759.47583 124035.0 
770.52356 134650.0 
771.431396 1335819.0 
772.397339 442913.0 
773.020142 246.0 
785.457275 956.0 
786.57373 956.0 
787.419312 1981.0 
812.459717 5106.0 
813.186523 2781.0 
827.716064 1430.0 
828.480713 37945.0 
829.427979 33854.0 
838.379883 50298.0 
839.349976 35366.0 
856.417603 44715.0 
857.415039 4082.0 
END IONS

