BEGIN IONS
PEPMASS=926.458
CHARGE=1+
MSLEVEL=2
SOURCE_INSTRUMENT=LC-ESI-qTof
FILENAME=1A1_HoiamideA_MH_926.mzXML
SEQ=*..*
IONMODE=Positive
ORGANISM=GNPS-LIBRARY
NAME=Hoiamide A M+H
PI=Dorrestein/Gerwick
DATACOLLECTOR=Luzzatto/Garg
SMILES=CCC[C@@H](C)[C@H](O)[C@H](C)[C@H]1OC(=O)[C@@H](NC(=O)[C@@H](OC(=O)[C@H](C)[C@H](O)[C@@H](NC(=O)[C@@]2(C)CSC(=N2)[C@@]2(C)CSC(=N2)C2=CSC(C[C@H](OC)[C@@H]1C)=N2)[C@@H](C)CC)C(C)C)[C@@H](C)O
INCHI=InChI=1S/C44H71N5O10S3/c1-14-16-23(6)33(51)25(8)36-24(7)29(57-13)17-30-45-28(18-60-30)38-48-44(12,20-61-38)42-49-43(11,19-62-42)41(56)47-31(22(5)15-2)34(52)26(9)39(54)58-35(21(3)4)37(53)46-32(27(10)50)40(55)59-36/h18,21-27,29,31-36,50-52H,14-17,19-20H2,1-13H3,(H,46,53)(H,47,56)/t22-,23+,24-,25-,26+,27+,29-,31-,32-,33-,34-,35-,36-,43+,44+/m0/s1
INCHIAUX=AJORQYDPWJZVAU-KCIYAEAGSA-N
PUBMED=19716479
SUBMITUSER=tal_lk
LIBRARYQUALITY=2
SPECTRUMID=CCMSLIB00000070245
SCANS=3447
100.022552 452.0 
101.13179 292.0 
111.118958 436.0 
113.096992 440.0 
120.064056 384.0 
121.103539 332.0 
125.09639 416.0 
126.831879 252.0 
145.042267 316.0 
154.123062 1884.0 
155.12326 396.0 
163.148514 1460.0 
164.154602 376.0 
170.392609 280.0 
172.023819 2380.0 
172.105103 280.0 
172.135818 420.0 
173.453812 264.0 
174.021515 288.0 
179.13829 320.0 
181.159363 588.0 
182.166 272.0 
184.095596 472.0 
193.153473 248.0 
195.008591 456.0 
196.013962 444.0 
197.019241 296.0 
202.105789 536.0 
207.826874 256.0 
210.022568 392.0 
213.184097 1052.0 
214.188034 392.0 
217.047546 544.0 
217.086304 264.0 
220.122055 360.0 
229.152634 248.0 
239.029755 1076.0 
240.032288 400.0 
243.112427 476.0 
252.445068 256.0 
254.120529 452.0 
256.928131 316.0 
266.525513 256.0 
272.129974 412.0 
275.059937 344.0 
277.082703 2656.0 
277.364777 292.0 
278.084503 476.0 
279.090912 784.0 
281.132446 1384.0 
281.194885 248.0 
282.134583 636.0 
283.122101 260.0 
286.251648 252.0 
287.155853 296.0 
288.082306 308.0 
295.075989 256.0 
296.033447 360.0 
296.380463 248.0 
299.142303 2124.0 
300.141266 392.0 
309.108459 828.0 
315.118896 336.0 
324.028809 912.0 
324.121979 392.0 
326.287231 268.0 
338.043701 336.0 
339.052002 264.0 
340.028473 256.0 
341.05368 376.0 
342.051819 356.0 
353.135376 856.0 
354.14444 572.0 
359.161163 3612.0 
360.161041 996.0 
361.16153 624.0 
371.145081 1960.0 
372.154816 408.0 
373.140717 480.0 
373.167633 488.0 
373.239044 408.0 
375.128082 528.0 
376.09552 796.0 
377.101135 256.0 
377.170746 6436.0 
378.079224 280.0 
378.172638 1584.0 
379.169861 492.0 
381.086456 308.0 
383.070374 1140.0 
384.065857 384.0 
385.06662 308.0 
390.166382 496.0 
391.188477 1612.0 
401.23288 388.0 
404.178467 320.0 
408.125366 780.0 
409.085144 448.0 
409.197632 5156.0 
410.19989 1768.0 
411.198395 308.0 
413.249847 252.0 
414.209381 248.0 
418.194885 316.0 
421.119354 1544.0 
422.121765 520.0 
422.190399 880.0 
423.117645 308.0 
423.195129 376.0 
429.898926 284.0 
436.206177 320.0 
453.147003 1116.0 
454.143402 332.0 
457.212189 1264.0 
458.177429 1552.0 
459.179077 468.0 
460.172058 352.0 
462.218689 296.0 
469.123138 344.0 
473.22229 312.0 
474.224304 288.0 
475.219086 760.0 
476.185577 948.0 
476.222076 528.0 
477.144379 740.0 
481.130035 476.0 
485.229797 324.0 
489.234222 560.0 
490.201477 820.0 
491.205688 340.0 
492.811462 280.0 
493.178101 1100.0 
494.180176 460.0 
500.242706 720.0 
502.238678 316.0 
503.195801 2712.0 
504.200409 980.0 
505.138184 472.0 
505.193512 644.0 
506.145599 508.0 
506.189697 364.0 
507.246765 1048.0 
508.213257 2336.0 
509.212524 916.0 
510.216003 408.0 
511.213989 308.0 
517.265442 388.0 
518.245667 348.0 
519.187988 908.0 
519.270691 472.0 
520.157104 308.0 
520.198303 404.0 
521.206421 4056.0 
522.207764 1212.0 
523.151794 712.0 
523.202698 460.0 
524.212585 280.0 
531.226562 1684.0 
532.228088 688.0 
532.262024 340.0 
532.270874 360.0 
533.2276 520.0 
534.225403 304.0 
535.220154 1044.0 
536.223938 724.0 
537.16272 2120.0 
537.215698 484.0 
538.181641 348.0 
539.16571 380.0 
540.162415 332.0 
541.17804 408.0 
548.524536 280.0 
551.216553 288.0 
553.233948 6608.0 
554.235596 2272.0 
555.17334 384.0 
555.230103 824.0 
556.24231 252.0 
557.204224 928.0 
558.211182 384.0 
563.187012 316.0 
563.259033 784.0 
564.247559 312.0 
565.252869 344.0 
565.985291 300.0 
567.316223 276.0 
573.238037 300.0 
575.216675 2364.0 
576.216797 1064.0 
577.218384 812.0 
578.195374 264.0 
578.240967 456.0 
579.221741 312.0 
579.277161 368.0 
585.334534 332.0 
588.270752 320.0 
589.229309 260.0 
590.249207 304.0 
593.226868 576.0 
595.215759 464.0 
601.273193 524.0 
602.271973 256.0 
602.743103 248.0 
603.280334 428.0 
605.31665 380.0 
606.33844 248.0 
607.243835 1332.0 
608.252014 560.0 
609.173279 252.0 
609.226685 468.0 
610.246643 268.0 
611.306702 448.0 
612.305115 332.0 
612.359314 272.0 
612.817261 256.0 
613.303589 1540.0 
614.312317 784.0 
615.311768 1096.0 
617.356445 1168.0 
619.277039 520.0 
619.350708 272.0 
620.277588 428.0 
621.296936 256.0 
625.258362 368.0 
626.261597 252.0 
629.308594 340.0 
631.31604 1360.0 
632.313965 476.0 
633.298523 1420.0 
634.312988 516.0 
635.303589 556.0 
637.236816 252.0 
638.209839 376.0 
638.264465 248.0 
639.283691 1104.0 
640.281494 304.0 
643.335022 624.0 
645.329773 1760.0 
646.329773 800.0 
647.333374 284.0 
648.288025 284.0 
651.305908 1956.0 
652.303589 768.0 
652.401001 252.0 
653.300659 624.0 
654.473083 256.0 
655.286438 260.0 
657.296204 2744.0 
658.297852 2536.0 
659.294739 1256.0 
660.293335 340.0 
661.195862 264.0 
661.342834 1040.0 
662.346252 292.0 
663.340393 5584.0 
664.344482 1672.0 
664.886902 252.0 
665.340271 816.0 
666.333496 320.0 
667.341248 260.0 
671.301575 600.0 
672.312195 556.0 
675.306396 3872.0 
676.309326 1392.0 
677.296265 692.0 
678.316223 348.0 
679.300354 344.0 
680.250671 420.0 
680.347473 332.0 
682.781006 264.0 
689.322083 4488.0 
690.321655 1468.0 
691.321411 940.0 
692.323181 860.0 
693.32019 652.0 
694.292542 340.0 
695.251221 344.0 
695.307495 304.0 
696.2276 272.0 
696.276428 268.0 
706.229736 352.0 
707.333984 7516.0 
708.270996 324.0 
708.332886 2480.0 
709.33374 1448.0 
710.291443 1412.0 
710.331238 800.0 
711.294006 464.0 
712.295471 432.0 
714.260132 352.0 
714.31781 272.0 
714.578369 248.0 
724.249512 928.0 
724.892883 256.0 
725.253906 620.0 
725.345764 1924.0 
726.254578 404.0 
726.346497 660.0 
727.241699 248.0 
727.336914 300.0 
728.259705 316.0 
728.320801 276.0 
729.37146 344.0 
732.318115 392.0 
733.300659 264.0 
736.297791 528.0 
737.289307 268.0 
738.262634 932.0 
739.269043 528.0 
740.266907 264.0 
741.279358 312.0 
748.341675 832.0 
749.344055 672.0 
750.30542 444.0 
750.34021 500.0 
751.350586 472.0 
756.273376 7112.0 
757.27771 2404.0 
758.280151 1288.0 
758.58197 248.0 
759.27478 704.0 
759.32782 316.0 
760.254395 320.0 
760.331604 296.0 
761.27478 328.0 
764.282715 272.0 
764.350525 504.0 
775.356445 368.0 
776.321655 724.0 
777.317505 748.0 
778.322937 392.0 
779.302063 456.0 
780.28064 284.0 
780.36554 852.0 
782.291321 440.0 
782.374634 624.0 
784.294006 260.0 
786.425232 260.0 
789.384705 332.0 
789.969543 248.0 
790.369019 380.0 
792.307007 308.0 
793.375488 272.0 
794.058777 264.0 
794.165283 372.0 
794.327515 9124.0 
795.328735 4348.0 
796.325745 2408.0 
797.325928 492.0 
798.317871 744.0 
798.426392 256.0 
799.329102 424.0 
807.381104 824.0 
808.347046 688.0 
809.346558 548.0 
810.356323 256.0 
812.395935 440.0 
814.404846 872.0 
815.391357 304.0 
815.421387 636.0 
818.402222 256.0 
818.457581 436.0 
819.453613 272.0 
820.405334 276.0 
824.346436 436.0 
825.401245 632.0 
826.352722 4632.0 
826.810242 324.0 
827.355164 2520.0 
828.359009 1048.0 
829.359253 308.0 
830.346802 284.0 
830.416138 1592.0 
831.417969 820.0 
832.4151 1068.0 
833.389526 248.0 
833.421936 652.0 
834.380005 436.0 
834.43158 432.0 
836.407227 476.0 
840.384521 300.0 
841.402588 264.0 
846.423401 516.0 
847.416504 424.0 
848.425964 764.0 
849.438354 712.0 
850.406738 524.0 
850.437866 708.0 
851.427979 252.0 
856.367554 304.0 
858.391602 2500.0 
859.4021 1392.0 
860.391724 520.0 
862.442993 2128.0 
862.792908 272.0 
863.442078 844.0 
864.439514 1392.0 
865.4422 828.0 
866.4328 648.0 
867.438049 412.0 
872.414246 328.0 
873.408752 380.0 
874.40094 328.0 
876.403625 12224.0 
876.616211 268.0 
877.266418 252.0 
877.329651 276.0 
877.409729 6116.0 
878.408081 3000.0 
879.413208 820.0 
880.454163 5244.0 
881.454834 2812.0 
881.670959 340.0 
882.453247 1320.0 
883.459167 492.0 
884.446777 368.0 
890.425659 2216.0 
891.427795 1452.0 
892.417786 1424.0 
893.432373 480.0 
894.416443 5680.0 
895.419128 2924.0 
896.412537 1248.0 
897.424561 620.0 
898.421265 440.0 
908.433044 13136.0 
909.434448 7652.0 
910.433167 3716.0 
911.433472 1536.0 
914.42865 292.0 
922.014526 1572.0 
922.815918 280.0 
923.011597 1240.0 
923.153748 248.0 
923.513672 320.0 
923.635254 328.0 
924.014404 332.0 
924.131958 260.0 
924.417786 268.0 
924.607605 252.0 
924.72113 260.0 
924.920349 252.0 
925.006287 292.0 
925.665894 272.0 
925.747314 304.0 
925.882019 260.0 
925.942566 296.0 
926.026794 308.0 
926.083923 412.0 
926.179626 412.0 
926.220886 424.0 
926.270813 292.0 
926.445312 173180.0 
926.617126 288.0 
926.885376 268.0 
926.965637 308.0 
927.050476 484.0 
927.116272 420.0 
927.214478 636.0 
927.325073 524.0 
927.446777 95424.0 
927.659302 404.0 
927.866699 528.0 
928.005554 372.0 
928.070374 284.0 
928.098999 464.0 
928.142517 452.0 
928.190308 340.0 
928.296936 264.0 
928.445129 50444.0 
928.61322 296.0 
928.680969 264.0 
928.871765 312.0 
929.07605 308.0 
929.228577 252.0 
929.282532 320.0 
929.356262 356.0 
929.445435 16636.0 
929.620239 252.0 
929.95929 392.0 
930.044128 272.0 
930.160889 264.0 
930.311157 252.0 
930.44281 3920.0 
930.625916 256.0 
931.340637 284.0 
931.450439 768.0 
931.596619 252.0 
931.700439 324.0 
931.784241 504.0 
932.054993 248.0 
932.436279 384.0 
932.83783 292.0 
933.702698 256.0 
933.807129 252.0 
934.458801 248.0 
1239.356323 264.0 
1344.972412 244.0 
1546.898804 268.0 
1599.037109 244.0 
END IONS

