BEGIN IONS
PEPMASS=516.322
CHARGE=1+
MSLEVEL=2
SOURCE_INSTRUMENT=LC-ESI-qTof
FILENAME=2C5_CarmaphycinA_MH_516.mzXML
SEQ=*..*
IONMODE=Positive
ORGANISM=GNPS-LIBRARY
NAME=Carmaphycin A M+H
PI=Dorrestein/Gerwick
DATACOLLECTOR=Luzzatto/Garg
SMILES=C[C@]1(OC1)C([C@H](CC(C)C)NC([C@H](CCS(C)=O)NC([C@H](C(C)C)NC(CCCCC)=O)=O)=O)=O
INCHI=N/A
INCHIAUX=N/A
PUBMED=22383253
SUBMITUSER=tal_lk
LIBRARYQUALITY=2
SPECTRUMID=CCMSLIB00000070265
SCANS=1182
95.08313 248.0 
95.104469 228.0 
96.471359 272.0 
96.921326 236.0 
97.062836 252.0 
97.912064 228.0 
98.062988 452.0 
99.078552 256.0 
99.633163 264.0 
100.662498 228.0 
101.072266 1704.0 
101.332298 232.0 
101.610863 272.0 
101.667023 252.0 
102.079971 240.0 
102.183228 312.0 
104.181885 244.0 
106.6987 228.0 
106.867279 236.0 
106.914589 236.0 
107.091576 428.0 
109.101891 928.0 
109.730591 228.0 
109.857758 248.0 
110.059204 364.0 
110.603455 236.0 
111.057953 236.0 
112.327919 240.0 
113.108902 704.0 
113.424934 240.0 
113.552101 232.0 
114.359138 260.0 
115.204338 240.0 
116.110382 280.0 
117.107231 280.0 
117.366104 256.0 
117.572731 296.0 
118.032669 288.0 
118.695 268.0 
119.279526 264.0 
119.343964 296.0 
120.048218 1496.0 
120.535789 248.0 
121.04937 448.0 
121.08889 244.0 
124.076126 328.0 
124.923851 240.0 
125.071442 688.0 
125.950806 252.0 
126.094109 380.0 
126.127907 3868.0 
126.798698 252.0 
127.054482 236.0 
127.131416 560.0 
127.262856 240.0 
127.743607 256.0 
128.11264 288.0 
129.00592 256.0 
129.29306 228.0 
130.956573 240.0 
131.054489 444.0 
131.711243 236.0 
132.021957 228.0 
132.417725 228.0 
132.713211 272.0 
133.077881 244.0 
133.188065 252.0 
134.676636 236.0 
135.741882 236.0 
135.785934 268.0 
136.112442 1548.0 
136.844421 232.0 
137.098862 800.0 
138.091934 572.0 
138.110855 412.0 
138.127945 1680.0 
138.420593 228.0 
138.666473 228.0 
139.119354 308.0 
140.104721 452.0 
141.052216 244.0 
141.073471 248.0 
141.103149 1616.0 
141.137314 276.0 
141.48494 252.0 
142.003662 264.0 
142.031601 432.0 
142.08876 472.0 
142.124603 404.0 
142.14595 280.0 
142.62178 384.0 
143.110153 232.0 
144.138901 240.0 
146.498123 240.0 
147.035797 228.0 
148.045975 532.0 
148.268524 228.0 
148.862625 256.0 
149.026184 864.0 
149.072617 552.0 
149.908234 240.0 
150.032394 432.0 
150.090073 676.0 
151.02594 268.0 
151.069946 252.0 
151.12088 572.0 
152.106186 900.0 
153.068695 232.0 
153.108093 428.0 
153.140152 232.0 
153.687881 228.0 
154.123077 15780.0 
154.669296 228.0 
155.086838 432.0 
155.108353 3396.0 
155.676773 244.0 
156.111221 344.0 
157.299927 240.0 
159.038864 284.0 
159.151794 232.0 
159.52095 248.0 
160.091858 252.0 
161.463562 260.0 
161.924606 256.0 
162.057114 320.0 
162.091736 232.0 
162.128723 292.0 
163.086441 2184.0 
163.12355 380.0 
164.087662 584.0 
164.10524 524.0 
165.069641 3396.0 
165.108521 344.0 
165.228745 244.0 
165.936447 232.0 
166.053223 2952.0 
166.085876 3876.0 
166.493042 268.0 
167.056366 340.0 
167.089386 672.0 
167.118988 396.0 
169.13382 2972.0 
169.375412 272.0 
169.678833 236.0 
169.836609 292.0 
169.883286 236.0 
170.15451 16300.0 
171.08725 268.0 
171.158249 3044.0 
172.134125 4544.0 
173.136673 280.0 
173.643097 248.0 
174.680176 308.0 
175.119568 276.0 
175.240692 228.0 
175.446182 240.0 
176.142639 784.0 
176.308945 228.0 
177.163239 288.0 
177.361908 228.0 
177.62413 232.0 
177.748947 264.0 
178.122864 400.0 
178.181564 248.0 
179.117355 528.0 
179.1586 228.0 
180.068069 328.0 
180.138504 708.0 
180.914017 276.0 
181.108902 256.0 
181.134369 1712.0 
181.227234 236.0 
181.647964 240.0 
182.117676 1056.0 
182.875427 228.0 
183.112717 1484.0 
184.09758 272.0 
184.169403 380.0 
185.135742 380.0 
185.827866 344.0 
186.163055 232.0 
186.381393 228.0 
188.123886 236.0 
188.14299 240.0 
188.216675 236.0 
189.61673 264.0 
190.125626 228.0 
190.294006 296.0 
190.488907 284.0 
191.021973 240.0 
191.068726 392.0 
191.117081 980.0 
191.154922 1744.0 
191.630142 244.0 
192.139969 616.0 
194.156631 244.0 
196.095398 336.0 
196.12883 244.0 
197.169724 388.0 
197.708084 248.0 
197.900024 236.0 
198.093262 1100.0 
198.149643 28036.0 
198.612213 240.0 
199.152664 2160.0 
199.514633 312.0 
199.821045 340.0 
199.879684 320.0 
200.133362 364.0 
200.157242 716.0 
200.857315 276.0 
201.127914 328.0 
201.621658 264.0 
201.693802 232.0 
203.105652 260.0 
203.127823 372.0 
203.862885 252.0 
204.986465 248.0 
205.135162 228.0 
205.923477 308.0 
207.149658 632.0 
208.135162 464.0 
209.128159 2480.0 
209.165314 520.0 
209.546219 228.0 
209.566391 248.0 
210.121674 352.0 
210.439957 236.0 
212.478287 264.0 
213.457977 372.0 
214.415344 264.0 
215.67276 240.0 
217.212662 280.0 
218.638672 236.0 
219.149719 11416.0 
220.153915 1400.0 
220.361038 256.0 
221.134247 260.0 
221.616745 236.0 
222.06543 228.0 
222.191513 228.0 
223.669266 312.0 
225.158813 404.0 
225.728226 232.0 
226.014038 236.0 
226.379074 240.0 
226.711456 292.0 
226.923035 260.0 
227.13942 5908.0 
227.183472 376.0 
228.145233 1512.0 
230.088608 424.0 
232.097198 304.0 
232.907928 376.0 
234.192169 264.0 
235.179657 256.0 
236.127457 472.0 
237.159378 23548.0 
238.16272 2876.0 
238.209732 252.0 
239.158997 448.0 
239.302597 236.0 
241.531433 296.0 
242.041855 228.0 
245.14682 252.0 
246.129608 360.0 
246.494461 256.0 
246.954742 272.0 
247.111862 520.0 
248.108353 416.0 
249.09964 228.0 
249.445602 300.0 
249.499008 240.0 
249.774826 296.0 
250.710342 244.0 
253.15538 3268.0 
253.190796 3376.0 
254.152588 680.0 
254.201477 652.0 
255.170822 34204.0 
255.57373 236.0 
256.172485 6148.0 
257.174316 564.0 
259.111633 236.0 
259.736511 304.0 
263.178528 528.0 
265.137115 308.0 
265.455658 236.0 
268.658081 236.0 
269.206177 296.0 
269.271484 256.0 
269.754852 236.0 
270.075165 320.0 
273.160034 252.0 
274.704865 252.0 
275.37796 252.0 
276.243622 256.0 
279.168396 556.0 
280.482605 256.0 
281.186279 6944.0 
282.189117 876.0 
282.996857 284.0 
283.144012 964.0 
283.713531 240.0 
284.131348 1184.0 
285.137573 560.0 
285.413055 312.0 
285.731842 276.0 
286.22229 260.0 
287.394806 256.0 
287.506104 324.0 
288.701538 300.0 
289.371246 264.0 
289.648804 260.0 
294.016052 252.0 
294.62149 232.0 
296.25473 228.0 
298.007141 252.0 
298.12738 400.0 
298.210236 340.0 
299.197937 268.0 
299.85968 300.0 
299.9617 228.0 
300.320374 300.0 
300.878876 296.0 
300.982269 248.0 
301.020386 228.0 
301.048706 308.0 
301.077393 264.0 
301.15979 75656.0 
301.257263 312.0 
301.484161 232.0 
301.537537 232.0 
301.671295 344.0 
301.726074 752.0 
302.16098 18276.0 
302.504028 248.0 
302.720215 248.0 
303.028839 228.0 
303.157257 4084.0 
303.957153 240.0 
304.153564 352.0 
304.788483 232.0 
307.345276 232.0 
308.224823 264.0 
308.999756 236.0 
314.382812 232.0 
314.776855 292.0 
317.185425 300.0 
318.113983 256.0 
318.639099 384.0 
318.691223 392.0 
318.759766 432.0 
318.828522 228.0 
318.964478 436.0 
319.077515 388.0 
319.125336 312.0 
319.170959 148312.0 
319.290039 240.0 
319.49942 232.0 
319.60556 280.0 
319.71405 416.0 
319.755768 2488.0 
319.81723 268.0 
319.857269 260.0 
320.172791 37564.0 
320.360077 456.0 
320.523743 244.0 
321.169006 11036.0 
321.702545 236.0 
322.121613 280.0 
322.171478 1396.0 
322.343262 356.0 
322.421387 236.0 
323.355438 228.0 
327.169373 284.0 
329.173553 360.0 
335.487457 264.0 
337.212067 864.0 
343.504211 244.0 
343.651703 320.0 
344.330383 260.0 
344.551575 328.0 
344.783966 252.0 
345.057526 240.0 
345.083801 260.0 
345.186493 99096.0 
345.31311 316.0 
345.457001 264.0 
345.529724 332.0 
345.698486 252.0 
345.792175 1220.0 
345.859589 232.0 
345.886261 272.0 
346.18808 30244.0 
346.696716 244.0 
347.183624 7248.0 
347.334412 236.0 
348.181763 1408.0 
348.262421 244.0 
348.543243 264.0 
348.616272 260.0 
349.938873 228.0 
352.619873 228.0 
354.23761 1680.0 
355.682465 228.0 
362.211243 1132.0 
363.202454 652.0 
366.943909 236.0 
369.287598 276.0 
371.393311 252.0 
394.983154 296.0 
397.258301 388.0 
398.259827 348.0 
401.212708 324.0 
403.282104 228.0 
417.287415 284.0 
418.23642 1892.0 
419.242096 1052.0 
419.560028 240.0 
420.240234 316.0 
425.281494 308.0 
434.301453 1824.0 
435.308899 1060.0 
439.064941 248.0 
441.670105 248.0 
443.214264 252.0 
449.713165 248.0 
450.293518 736.0 
451.309326 580.0 
451.638458 264.0 
451.7388 268.0 
452.133728 276.0 
452.312103 32116.0 
452.398956 228.0 
453.156586 272.0 
453.31543 7532.0 
454.319672 896.0 
454.456665 228.0 
455.160156 240.0 
455.317871 296.0 
462.891418 236.0 
462.987244 232.0 
477.554688 232.0 
486.295288 400.0 
487.299103 244.0 
491.043671 232.0 
498.299042 5264.0 
498.398071 240.0 
498.469147 240.0 
499.300934 1776.0 
500.294495 640.0 
505.614807 236.0 
515.812683 228.0 
515.865906 344.0 
516.130005 308.0 
516.312744 93652.0 
516.644348 268.0 
517.055725 576.0 
517.314636 33200.0 
517.461731 236.0 
517.951477 256.0 
517.991516 280.0 
518.312256 8008.0 
518.814697 260.0 
519.309448 1932.0 
520.312195 292.0 
520.346436 328.0 
534.641541 256.0 
1302.517456 228.0 
1355.738403 228.0 
1386.790771 264.0 
1396.639648 264.0 
1488.014404 248.0 
1581.904541 236.0 
1617.704834 264.0 
1659.695679 236.0 
1723.310913 228.0 
1758.915649 240.0 
1763.674927 232.0 
1771.160645 232.0 
1800.173218 248.0 
1800.645874 228.0 
1809.013428 284.0 
1817.044189 248.0 
1824.599731 224.0 
1879.307373 260.0 
1880.868774 288.0 
1887.01709 236.0 
1928.029419 232.0 
1935.190674 236.0 
1955.610107 264.0 
1956.754028 240.0 
1965.185303 224.0 
1986.338257 264.0 
1990.729736 276.0 
1995.579346 228.0 
1998.406616 264.0 
2000.728516 240.0 
2000.995483 244.0 
END IONS

