BEGIN IONS
PEPMASS=740.43
CHARGE=1+
MSLEVEL=2
SOURCE_INSTRUMENT=LC-ESI-Ion Trap
FILENAME=f.yuhaobing/microcolins Fedback/microcolin I.mzXML;
SEQ=*..*
IONMODE=Positive
ORGANISM=GNPS-LIBRARY
NAME=Microcolin H M+Na
PI=Gerwick
DATACOLLECTOR=Haobing Yu
SMILES=CN(C([C@H](C)CCCCCC)=O)[C@@H](CC(C)C)C(N[C@@H]([C@@H](C)OC(C)=O)C(N(C)[C@@H](C(C)C)C(N1[C@H](C(N2C(C=C[C@@H]2C)=O)=O)CCC1)=O)=O)=O
INCHI=
INCHIAUX=
PUBMED=31468974
SUBMITUSER=yuhaobing
LIBRARYQUALITY=3
SPECTRUMID=CCMSLIB00005463465
SCANS=942
268.091125 2303.0 
316.27002 2828.0 
329.98468 10628.0 
351.223877 4525.0 
370.678223 1980.0 
373.716797 4189.0 
374.725952 1316.0 
386.175415 979.0 
409.219238 3213.0 
413.3974 11019.0 
423.255798 2196.0 
426.108154 2115.0 
433.083069 6747.0 
436.134644 8985.0 
455.033081 469.0 
457.487366 1546.0 
458.19165 1711.0 
464.317444 12475.0 
473.079163 26945.0 
483.351318 6784.0 
486.265564 6213.0 
499.549683 2517.0 
546.101807 8354.0 
583.435791 635.0 
612.548828 10713.0 
615.30603 6406.0 
619.588379 2963.0 
624.549683 5309.0 
637.225342 1768.0 
642.799561 12380.0 
643.449463 8078.0 
679.695923 24051.0 
680.392334 656745.0 
681.495605 107851.0 
696.266846 5422.0 
697.164551 3106.0 
703.340942 1732.0 
711.160156 3063.0 
739.460815 5260.0 
740.50354 669.0 
741.36792 2294.0 
END IONS

