BEGIN IONS
PEPMASS=538.304
CHARGE=1+
MSLEVEL=2
SOURCE_INSTRUMENT=LC-ESI-qTof
FILENAME=2C5_CarmaphycinA_MNa_538.mzXML
SEQ=*..*
IONMODE=Positive
ORGANISM=GNPS-LIBRARY
NAME=Carmaphycin A M+Na
PI=Dorrestein/Gerwick
DATACOLLECTOR=Luzzatto/Garg
SMILES=C[C@]1(OC1)C([C@H](CC(C)C)NC([C@H](CCS(C)=O)NC([C@H](C(C)C)NC(CCCCC)=O)=O)=O)=O
INCHI=N/A
INCHIAUX=N/A
PUBMED=22383253
SUBMITUSER=tal_lk
LIBRARYQUALITY=2
SPECTRUMID=CCMSLIB00000070266
SCANS=1183
94.976456 232.0 
98.972977 224.0 
99.020485 236.0 
100.635025 220.0 
101.31427 244.0 
104.027611 244.0 
109.31002 264.0 
109.557686 292.0 
109.630585 276.0 
112.70356 248.0 
114.979095 284.0 
115.124207 216.0 
122.815903 228.0 
122.855591 260.0 
123.06517 228.0 
124.035408 484.0 
125.110703 212.0 
125.248711 256.0 
126.33091 232.0 
127.894302 216.0 
132.040237 212.0 
132.374222 372.0 
134.779343 228.0 
135.042526 408.0 
135.068207 264.0 
136.074661 396.0 
138.09082 384.0 
139.163589 300.0 
140.969528 216.0 
143.799255 216.0 
144.429779 212.0 
146.019333 308.0 
147.095917 224.0 
150.088791 340.0 
152.101028 212.0 
153.05426 292.0 
158.610123 280.0 
161.106232 332.0 
162.048676 212.0 
162.093384 216.0 
164.103882 600.0 
168.565964 212.0 
172.064072 376.0 
175.085342 352.0 
176.104385 2780.0 
177.095398 500.0 
178.054855 216.0 
178.098145 520.0 
179.056702 1424.0 
180.142914 236.0 
183.421982 244.0 
184.579712 256.0 
185.762787 212.0 
186.479324 228.0 
186.537262 236.0 
188.068741 364.0 
188.627396 232.0 
190.049118 332.0 
191.090698 356.0 
191.12648 628.0 
192.098618 308.0 
192.136597 10284.0 
192.979248 248.0 
193.097626 552.0 
193.141418 1532.0 
194.084305 224.0 
194.110931 232.0 
194.145294 476.0 
194.335846 228.0 
196.07869 220.0 
197.678223 212.0 
198.14563 548.0 
198.655655 236.0 
199.082092 236.0 
199.110168 264.0 
199.598938 224.0 
200.581085 240.0 
202.012177 220.0 
202.119644 392.0 
202.41391 296.0 
203.119904 236.0 
204.100204 256.0 
205.107224 252.0 
208.11322 460.0 
211.165085 212.0 
213.141266 216.0 
217.687592 228.0 
218.136398 220.0 
219.11264 396.0 
219.148621 688.0 
219.797318 252.0 
220.095886 412.0 
220.130127 1348.0 
221.046738 252.0 
223.63356 252.0 
223.773407 212.0 
225.025116 228.0 
225.251984 220.0 
226.121719 252.0 
229.129303 216.0 
232.119781 228.0 
233.156967 376.0 
233.763092 252.0 
234.134476 600.0 
235.138336 1088.0 
235.936905 216.0 
237.157166 1200.0 
238.074753 240.0 
238.139954 436.0 
239.655197 224.0 
239.750687 284.0 
240.071167 272.0 
240.617081 236.0 
241.135818 300.0 
244.353271 232.0 
245.632935 472.0 
245.698608 276.0 
246.134399 624.0 
246.647537 216.0 
247.144104 664.0 
249.123672 784.0 
249.153915 292.0 
249.640442 212.0 
250.125732 368.0 
250.166351 688.0 
253.118332 220.0 
253.161514 212.0 
253.303268 216.0 
254.636917 412.0 
255.14386 276.0 
255.644226 264.0 
257.28241 228.0 
259.14328 412.0 
259.17923 2044.0 
260.180389 300.0 
261.127502 332.0 
261.157227 604.0 
262.138306 224.0 
262.159027 348.0 
263.173798 1240.0 
264.134949 408.0 
265.303345 252.0 
266.334808 268.0 
267.160126 248.0 
271.128235 300.0 
271.981384 216.0 
272.671082 284.0 
272.818695 212.0 
274.161072 252.0 
274.972015 272.0 
275.134674 404.0 
275.173523 10968.0 
275.289429 236.0 
275.561005 240.0 
276.142639 400.0 
276.177582 2712.0 
277.111603 1168.0 
277.154022 836.0 
277.186188 2508.0 
277.760132 240.0 
278.121185 320.0 
278.153442 572.0 
278.19223 340.0 
279.603394 216.0 
281.169128 256.0 
283.124054 240.0 
283.371826 212.0 
284.935333 256.0 
285.650391 212.0 
286.6297 232.0 
287.13327 400.0 
287.187836 384.0 
287.857056 276.0 
289.140594 404.0 
289.189514 256.0 
291.133759 212.0 
291.160431 256.0 
292.163574 828.0 
294.177979 1616.0 
295.095032 240.0 
295.125793 216.0 
295.16391 452.0 
296.172577 312.0 
297.166321 216.0 
299.007416 236.0 
300.181671 264.0 
300.802429 224.0 
301.161377 228.0 
302.183655 812.0 
303.169403 4952.0 
304.17038 704.0 
305.182434 440.0 
306.144623 432.0 
307.145752 340.0 
307.185333 880.0 
308.166138 224.0 
308.193848 304.0 
309.150726 296.0 
309.672546 216.0 
310.152374 216.0 
317.184631 276.0 
318.178772 212.0 
318.856232 256.0 
319.165344 696.0 
319.197449 692.0 
319.503143 256.0 
319.933563 240.0 
320.15921 460.0 
320.195007 9828.0 
320.973511 216.0 
321.194183 2092.0 
321.533356 212.0 
322.174011 1680.0 
323.12323 300.0 
323.176239 404.0 
323.382568 212.0 
324.144379 280.0 
326.119446 252.0 
326.608246 228.0 
329.949738 236.0 
330.213593 448.0 
332.16095 368.0 
333.179962 1616.0 
334.180328 1080.0 
335.185577 340.0 
335.709778 240.0 
336.190918 220.0 
337.163239 300.0 
339.170654 728.0 
341.493896 220.0 
341.666718 216.0 
343.716431 244.0 
344.696228 248.0 
345.187744 260.0 
346.206543 1268.0 
346.253021 372.0 
347.21286 364.0 
348.189026 1064.0 
348.550201 220.0 
349.192139 584.0 
349.280457 264.0 
349.797485 216.0 
350.232941 240.0 
354.170685 252.0 
354.437866 272.0 
354.894958 216.0 
356.001434 216.0 
358.205872 388.0 
359.188629 304.0 
360.186218 472.0 
360.226654 344.0 
360.304932 212.0 
361.171936 532.0 
361.202423 712.0 
362.167175 700.0 
362.242218 5056.0 
363.211029 748.0 
363.244812 964.0 
363.727875 232.0 
364.248535 712.0 
366.715271 220.0 
367.164734 328.0 
368.924469 232.0 
370.205719 304.0 
370.251648 372.0 
370.929535 236.0 
371.558197 220.0 
372.229156 548.0 
372.839264 252.0 
373.246399 496.0 
374.204041 1588.0 
375.207916 468.0 
375.250702 256.0 
376.012299 208.0 
376.191467 608.0 
376.218842 336.0 
377.224854 212.0 
378.179657 288.0 
378.206726 232.0 
378.349884 220.0 
379.228851 280.0 
384.309448 220.0 
384.598114 216.0 
385.238312 212.0 
386.200592 432.0 
386.480988 220.0 
388.011749 208.0 
388.252472 392.0 
389.239471 232.0 
390.199493 988.0 
390.234985 5560.0 
390.270538 3036.0 
390.618256 316.0 
391.212128 1172.0 
391.234528 1068.0 
391.274384 424.0 
391.521606 252.0 
392.211578 372.0 
392.239471 236.0 
392.839355 272.0 
395.184814 224.0 
396.875397 244.0 
398.267761 208.0 
399.308746 212.0 
400.296265 472.0 
400.682861 220.0 
402.164215 232.0 
402.233429 772.0 
404.216156 7880.0 
404.337555 280.0 
404.917084 212.0 
405.219452 1104.0 
405.766998 244.0 
409.246857 228.0 
409.293243 232.0 
411.243622 228.0 
412.588226 212.0 
413.80954 224.0 
414.232941 1120.0 
415.240936 232.0 
415.908569 308.0 
416.143921 376.0 
416.21698 292.0 
416.287323 808.0 
417.256134 276.0 
417.291687 280.0 
418.260071 404.0 
419.26178 336.0 
420.273468 360.0 
420.607971 276.0 
426.259766 268.0 
426.627228 220.0 
428.256042 280.0 
428.289703 548.0 
428.729645 240.0 
429.264465 316.0 
429.434357 240.0 
430.044739 208.0 
430.226013 320.0 
430.269501 536.0 
431.222015 232.0 
431.308136 248.0 
432.246643 4224.0 
432.618896 220.0 
433.249023 1680.0 
437.731964 228.0 
438.264587 516.0 
440.711853 260.0 
440.754913 256.0 
441.318939 208.0 
442.259857 300.0 
443.360962 208.0 
444.284393 1524.0 
445.287476 368.0 
446.297028 1896.0 
447.182098 224.0 
447.270142 560.0 
447.304932 704.0 
447.698761 240.0 
449.716187 260.0 
450.80127 224.0 
452.616302 236.0 
453.63269 260.0 
453.687775 236.0 
456.283386 6952.0 
457.285797 1800.0 
458.229065 348.0 
458.286194 752.0 
458.735138 340.0 
459.237335 236.0 
460.27887 328.0 
461.278107 452.0 
462.22821 240.0 
462.399323 244.0 
464.58371 224.0 
467.181671 208.0 
467.220367 220.0 
467.998169 252.0 
469.403198 252.0 
471.392365 224.0 
471.592865 244.0 
471.641571 240.0 
471.704834 304.0 
471.79126 380.0 
473.285004 1300.0 
473.714783 248.0 
473.75296 268.0 
474.239746 244.0 
474.294373 71704.0 
474.417389 268.0 
474.849121 208.0 
475.29715 17828.0 
475.379944 356.0 
475.603088 240.0 
476.299591 2564.0 
477.11734 240.0 
477.302246 388.0 
478.271667 212.0 
478.451172 224.0 
481.702606 224.0 
482.233124 248.0 
485.850891 212.0 
486.114044 224.0 
486.539612 220.0 
487.430878 212.0 
490.257111 428.0 
491.621368 212.0 
494.590149 208.0 
494.783356 216.0 
495.475433 248.0 
495.536011 212.0 
496.28064 368.0 
503.281372 1120.0 
503.780487 636.0 
504.28891 544.0 
504.783875 404.0 
505.283813 376.0 
509.788239 220.0 
511.001801 240.0 
511.05127 216.0 
517.270691 416.0 
517.453186 248.0 
518.320251 264.0 
521.279846 240.0 
522.77533 252.0 
523.264099 824.0 
524.280579 544.0 
525.186707 248.0 
525.273499 364.0 
526.281372 216.0 
526.781372 388.0 
527.280457 252.0 
530.879395 336.0 
531.356445 212.0 
532.720398 216.0 
533.800049 420.0 
534.098816 220.0 
535.282837 3232.0 
535.784851 1748.0 
536.08197 288.0 
536.282654 2324.0 
536.676697 348.0 
536.783081 744.0 
536.84259 216.0 
536.939453 224.0 
537.27887 836.0 
537.451294 264.0 
537.503479 208.0 
537.67334 252.0 
537.792725 396.0 
538.033264 340.0 
538.106567 236.0 
538.148376 632.0 
538.184998 404.0 
538.234924 972.0 
538.294678 198584.0 
538.437683 356.0 
538.478882 356.0 
538.674683 240.0 
538.893433 320.0 
538.970276 280.0 
539.051453 1312.0 
539.120361 400.0 
539.169006 328.0 
539.218323 420.0 
539.295837 65200.0 
539.432495 344.0 
539.479797 312.0 
539.544434 264.0 
539.615234 216.0 
539.762268 392.0 
539.796631 224.0 
540.05072 244.0 
540.145874 292.0 
540.29425 17852.0 
540.383911 244.0 
540.548889 280.0 
540.706665 216.0 
541.295044 2816.0 
541.503357 264.0 
541.904663 256.0 
542.240967 216.0 
542.293274 288.0 
542.425354 256.0 
542.598206 256.0 
542.660706 260.0 
543.090027 292.0 
543.574219 260.0 
544.605469 216.0 
560.272156 444.0 
561.274414 376.0 
570.229858 220.0 
666.161926 272.0 
1583.352905 216.0 
1743.064819 224.0 
1759.666748 208.0 
1820.344604 224.0 
1828.255737 264.0 
1876.953613 236.0 
1881.231201 288.0 
END IONS

