BEGIN IONS
TITLE=Scan Number: 1
PEPMASS=855.33398
CHARGE=1+
COMPOUNDNAME=Napsamycin C
LIBRARYQUALITY=2
SMILES=CC(C(C(=O)NC=C1CC(C(O1)N2CCC(=O)NC2=O)O)NC(=O)C(CCSC)NC(=O)NC(CC3=CC(=CC=C3)O)C(=O)O)N(C)C(=O)C4CC5=C(CN4)C=CC(=C5)O
INCHIKEY=MFEPAAMYDYMBSN-XHPQRKPJSA-N
INCHI=InChI=1S/C39H50N8O12S/c1-20(46(2)35(54)28-16-23-15-25(49)8-7-22(23)18-40-28)32(34(53)41-19-26-17-30(50)36(59-26)47-11-9-31(51)44-39(47)58)45-33(52)27(10-12-60-3)42-38(57)43-29(37(55)56)14-21-5-4-6-24(48)13-21/h4-8,13,15,19-20,27-30,32,36,40,48-50H,9-12,14,16-18H2,1-3H3,(H,41,53)(H,45,52)(H,55,56)(H2,42,43,57)(H,44,51,58)/b26-19-
MSLEVEL=2
SOURCE_INSTRUMENT=LC-ESI-qTof
FILENAME=1303_855.mzXML
SEQ=*..*
NOTES=
IONMODE=Positive
ORGANISM=GNPS-LIBRARY
NAME=Napsamycin C M+H
SPECTRUMID=CCMSLIB00000075016
ACTIVATION=CID
INSTRUMENT=ion trap
SCANS=1
243.162918 1.216552 
247.887619 0.788472 
250.18454 0.618222 
256.248169 0.626771 
263.164429 2.733224 
264.245026 0.406008 
266.939545 1.173741 
269.119385 0.316573 
271.122803 1.203243 
272.103668 2.349938 
273.189484 1.099551 
274.25592 0.731829 
277.090149 1.260785 
279.424225 0.75179 
282.105591 0.615153 
285.36969 0.307174 
287.091705 0.611902 
289.164185 5.156664 
290.313599 1.967552 
291.703674 1.621158 
292.733551 5.251488 
293.778076 0.665603 
297.362183 0.495335 
300.138458 19.615574 
301.210114 1.401359 
302.261841 2.052932 
305.329346 3.338043 
307.316772 0.258771 
309.99649 15.08371 
310.996826 7.441152 
312.233795 0.64428 
316.158142 0.753824 
317.01593 2.416678 
321.025513 8.989552 
322.221619 2.043872 
323.559204 1.662977 
324.342468 1.973951 
325.438904 0.576289 
326.096039 0.884608 
328.217773 3.770702 
329.223175 1.959701 
331.010162 4.82062 
332.030457 1.811296 
336.104492 4.357568 
338.991028 60.595081 
339.942902 2.838088 
340.739502 0.407866 
342.099365 1.475006 
346.230896 2.6925 
350.412659 1.734913 
351.182587 0.713693 
352.178314 5.544496 
353.936432 0.709307 
357.396118 0.456136 
358.446136 0.682868 
359.206635 1.309699 
360.406311 1.998639 
362.20639 3.478169 
364.443909 0.474754 
365.28833 1.863166 
369.484741 0.646146 
371.152954 1.853582 
372.22052 1.047128 
373.446838 1.029334 
376.240356 10.506041 
377.180115 0.801788 
378.227966 6.971565 
380.109863 2.91882 
381.505493 0.97204 
384.291382 1.856235 
385.115082 8.136217 
386.364746 1.712522 
387.11319 1.906655 
389.184448 0.834764 
390.294678 1.14562 
391.262451 1.451965 
392.189941 18.424685 
393.295654 7.665683 
394.355377 5.516541 
395.586304 7.372558 
396.262573 16.316896 
397.283447 3.364636 
398.335663 0.491381 
399.612061 0.793671 
402.168274 0.885762 
403.353333 7.14537 
404.257446 10.633858 
405.752991 2.727509 
407.294067 2.625064 
408.390747 3.450759 
409.382751 1.272993 
410.46405 1.921947 
411.503601 2.67712 
412.300842 1.255922 
413.206116 1.212673 
414.234955 1.550583 
415.250427 2.011652 
416.236359 15.055883 
416.846497 0.274687 
417.519226 1.278239 
419.163513 0.960198 
420.340393 3.778705 
421.538361 4.814684 
422.22757 44.224754 
423.383392 9.920627 
424.213562 12.33841 
425.420959 0.28719 
426.362335 5.434081 
427.589233 6.666564 
429.171204 2.789222 
430.152771 0.336223 
431.090118 0.655535 
433.298065 0.36463 
435.221191 1.272743 
436.440857 8.598073 
437.303986 2.336394 
438.217285 2.499947 
439.403503 1.089732 
440.096619 9.716078 
441.312439 6.002709 
442.235107 19.353443 
443.346771 1.82022 
444.209534 2.91211 
445.259979 4.524654 
447.023499 18.148272 
448.1922 7.687723 
449.32373 4.490949 
450.152435 4.621041 
452.066406 0.418634 
453.481476 3.195014 
454.229004 1.818464 
455.212158 17.690029 
456.251099 3.352186 
457.49762 0.638332 
458.182617 9.602448 
459.235474 5.570124 
460.318726 6.288557 
461.379333 15.421419 
462.426697 3.931435 
463.345032 2.533196 
464.073914 3.930149 
464.817657 1.28982 
465.484192 1.397452 
467.141479 5.401885 
467.938721 5.30022 
468.68576 0.652384 
470.218018 0.956376 
471.186096 4.458604 
472.162933 1.135894 
473.276184 32.07616 
474.093567 4.091446 
475.256561 13.709817 
476.269409 4.126598 
477.319122 2.055734 
478.263031 0.962565 
479.167572 1.930193 
480.122864 15.274171 
481.197266 22.180992 
482.122284 1.720003 
483.315125 1.508245 
484.377258 1.148868 
485.384766 0.22018 
486.685455 0.848623 
488.387268 4.747196 
489.194824 2.811158 
490.340332 3.305124 
490.948578 1.822528 
491.583221 1.70494 
492.252625 1.597689 
493.93457 0.964957 
495.247711 2.470838 
497.17981 57.295898 
498.269653 22.710285 
499.190399 178.55899 
500.19281 6.393511 
501.292908 0.335733 
502.252045 0.265321 
506.277771 8.765718 
506.991364 0.635773 
507.820679 0.510813 
508.971649 0.28731 
510.27774 1.333732 
511.018402 0.477936 
512.52771 2.477162 
513.334656 3.054457 
514.317993 5.164289 
515.293579 16.373178 
516.259277 15.60483 
517.246643 31.66828 
518.116699 0.622478 
519.328857 4.520393 
520.325439 0.667888 
523.112427 2.283383 
524.217163 2.340879 
525.079346 2.204588 
527.095703 2.49137 
527.852295 1.95616 
529.106201 1.116609 
530.08728 0.608748 
532.312134 11.765506 
534.271851 70.085381 
535.282227 3.425466 
536.263184 9.1776 
537.275391 8.769018 
538.32312 2.062272 
539.453125 2.881326 
540.891968 3.597395 
542.265076 8.9783 
543.154175 5.777712 
544.104248 1.314794 
546.207153 1.068245 
548.140381 7.512159 
550.618591 1.440662 
551.447876 1.303166 
552.339417 2.087194 
553.439941 3.576225 
554.225708 0.749003 
557.306396 3.742847 
558.377563 4.555099 
560.230103 289.267334 
561.283752 6.526041 
562.119568 0.379546 
565.331665 4.520566 
566.155762 5.792193 
566.909668 0.61244 
567.573608 0.571461 
568.926514 4.792068 
569.541504 8.328467 
570.516357 3.15723 
571.237183 3.589739 
572.19751 3.588206 
573.294128 1.64699 
574.169189 0.253852 
576.217041 5.974917 
578.738647 2.30807 
580.070923 0.788095 
581.3479 0.487403 
582.416626 0.25614 
584.627563 1.387441 
586.313477 2.130074 
587.33374 83.051819 
588.002075 4.154431 
588.688721 1.328569 
590.888672 4.026433 
592.088135 0.560741 
594.273682 4.769401 
595.320923 1.730031 
598.832214 0.378093 
599.606445 1.338434 
600.767944 1.611588 
602.16748 11.527004 
603.318054 6.110002 
604.110107 0.423345 
604.980713 10.580509 
607.126221 7.543221 
608.577148 5.589682 
609.313965 11.445336 
610.226013 24.605312 
611.056274 4.016977 
612.30249 6.112768 
613.195923 6.950285 
615.193359 0.378132 
616.384277 0.921 
617.374634 2.486792 
618.447693 0.364486 
619.163208 1.454357 
619.93042 1.433995 
621.414673 6.224678 
622.960327 3.763034 
624.279663 8.731841 
625.482361 8.136216 
626.361328 13.747872 
627.264282 7.987843 
628.246765 85.53627 
629.197327 19.223635 
630.353149 28.083014 
631.314819 6.247096 
632.990845 3.938885 
634.200195 1.519998 
634.91571 1.446393 
636.098206 1.96662 
638.200684 4.362808 
639.168579 1.538942 
640.219421 0.502568 
641.317017 5.05155 
641.985596 0.761263 
643.123779 1.691042 
644.061951 2.957158 
645.630127 14.766747 
646.342041 123.739868 
647.233643 74.172981 
648.222656 362.414795 
649.260864 23.113914 
650.018433 2.943951 
650.977112 1.885822 
652.28186 1.003783 
654.118408 36.620071 
655.200745 19.331379 
656.33197 186.173325 
657.188538 0.790664 
658.513123 2.424768 
659.458984 1.536183 
660.307861 3.664211 
661.165649 2.445332 
662.419861 31.469551 
663.299683 10.03966 
664.439575 13.190184 
666.452759 1.237836 
667.260742 1.898768 
667.93103 0.488259 
670.174683 1.660958 
671.000183 6.040645 
672.207153 718.040955 
673.210449 399.839417 
674.206055 1990.408936 
675.206787 71.454628 
676.175415 8.9099 
678.045959 48.322479 
679.091431 41.312553 
680.197998 172.301575 
681.452332 5.361821 
682.351074 2.159845 
683.816772 1.520313 
684.520264 1.193555 
686.130981 1.117558 
688.158325 80.16729 
689.23584 40.071899 
690.199768 70.196739 
690.966553 7.061653 
691.91626 7.614331 
694.495117 11.229523 
695.400818 8.489269 
697.064026 1.364084 
699.338745 1.887647 
700.171997 0.878862 
703.02063 0.570668 
704.653442 3.839133 
705.296875 0.4602 
706.771118 4.299091 
707.993225 5.547295 
708.921265 0.729342 
710.213318 3.849366 
712.433594 6.301718 
713.165283 68.032806 
715.868347 4.083618 
716.8302 2.897664 
718.035828 2.569912 
719.236694 3.400589 
720.696716 1.678911 
722.085449 5.374386 
723.253296 72.581863 
724.443237 2.635238 
725.616577 0.869282 
727.027771 0.308637 
728.193298 1.432257 
730.184326 4.969192 
730.854919 4.571344 
731.821289 3.586993 
733.313171 2.586367 
734.161743 15.705438 
735.227112 16.131153 
735.925903 7.01568 
737.054321 3.051696 
737.962891 0.562834 
739.278198 15.965089 
741.159424 669.389771 
742.161987 19.307497 
743.114258 4.690269 
744.939575 0.480828 
745.570312 0.403287 
746.529663 0.190815 
747.87915 0.416784 
748.564087 0.936752 
749.238647 0.616409 
750.138916 0.581669 
751.168091 4.176637 
752.038574 3.94813 
754.945435 13.87277 
755.795776 8.003385 
756.775024 3.07058 
758.269409 4.63391 
759.192993 1.389137 
760.34729 1.450808 
761.948242 2.797287 
763.20166 10.551126 
764.050415 8.568266 
766.630615 4.015353 
768.128662 6.898256 
769.318115 0.859925 
770.212402 3.588598 
771.094971 1.808675 
772.388184 1.530612 
774.448975 5.925244 
775.196411 1.100493 
777.462524 2.171304 
779.214966 3.483275 
780.248169 1.000683 
781.072998 1.847347 
782.189575 2.881001 
783.505127 3.124695 
784.320557 2.921245 
785.199463 1.128987 
786.106201 4.03521 
787.500977 4.452316 
788.564819 11.723763 
789.310181 10.834327 
790.423584 11.71074 
791.428467 15.944134 
792.914795 6.484978 
794.454956 13.32772 
795.322876 4.508111 
796.755005 1.670279 
799.380981 1.392193 
800.271118 5.687106 
801.238892 5.116997 
802.650024 3.000325 
804.01062 3.939666 
804.895996 1.819182 
806.499878 5.494081 
807.873291 5.226022 
808.908813 2.256631 
809.967163 3.952378 
811.228638 6.51422 
812.167847 2.135827 
813.83313 2.259095 
814.551514 0.480454 
816.125977 0.855532 
817.151489 5.463741 
817.770142 13.736118 
818.432739 15.404786 
819.343506 27.537237 
820.306641 0.302986 
821.308472 4.236129 
822.146362 2.284171 
822.84082 1.325517 
823.553101 1.792642 
825.281006 0.987394 
826.934692 1.64378 
827.883301 3.148916 
829.695435 9.025492 
831.849487 0.682307 
833.75354 4.9064 
835.230835 100.247681 
836.210205 107.285614 
837.244995 372.834167 
838.312256 11.64924 
839.102417 3.914777 
840.859497 3.957635 
842.727173 1.306663 
846.066528 0.902125 
847.148315 4.070402 
854.781494 0.940883 
855.826172 4.930734 
868.426636 0.561636 
END IONS

