BEGIN IONS
PEPMASS=940.472
CHARGE=1+
MSLEVEL=2
SOURCE_INSTRUMENT=LC-ESI-qTof
FILENAME=1B5_HoiamideB_MH_ 940.mzXML
SEQ=*..*
IONMODE=Positive
ORGANISM=GNPS-LIBRARY
NAME=Hoiamide B M+H
PI=Dorrestein/Gerwick
DATACOLLECTOR=Luzzatto/Garg
SMILES=CCC[C@@H](C)[C@H](O)[C@H](C)[C@H]1OC(=O)[C@@H](NC(=O)C(OC(=O)[C@H](C)[C@H](O)[C@@H](NC(=O)[C@@]2(C)CSC(=N2)[C@@]2(C)CSC(=N2)C2=CSC(C[C@H](OC)[C@@H]1C)=N2)[C@@H](C)CC)[C@@H](C)CC)[C@@H](C)O
INCHI=InChI=1S/C45H73N5O10S3/c1-14-17-24(6)34(52)26(8)37-25(7)30(58-13)18-31-46-29(19-61-31)39-49-45(12,21-62-39)43-50-44(11,20-63-43)42(57)48-32(22(4)15-2)35(53)27(9)40(55)59-36(23(5)16-3)38(54)47-33(28(10)51)41(56)60-37/h19,22-28,30,32-37,51-53H,14-18,20-21H2,1-13H3,(H,47,54)(H,48,57)/t22-,23-,24+,25-,26-,27+,28+,30-,32-,33-,34-,35-,36?,37-,44+,45+/m0/s1
INCHIAUX=KNGPFNUOXXLKCN-KKCRFZLHSA-N
PUBMED=20687534
SUBMITUSER=tal_lk
LIBRARYQUALITY=2
SPECTRUMID=CCMSLIB00000070258
SCANS=3607
100.0214 616.0 
102.054169 572.0 
111.131851 288.0 
120.066109 660.0 
121.065598 288.0 
121.099075 492.0 
123.015083 408.0 
137.556778 332.0 
146.029953 300.0 
152.11087 316.0 
154.122421 1756.0 
155.104996 644.0 
155.126923 372.0 
163.148315 2248.0 
164.760971 304.0 
172.024384 2900.0 
172.131958 992.0 
174.016708 428.0 
181.157745 1460.0 
182.156677 372.0 
195.171997 456.0 
197.019821 612.0 
198.110626 284.0 
210.016571 496.0 
213.184036 1304.0 
216.12413 1124.0 
217.046402 500.0 
225.013336 460.0 
234.133041 528.0 
239.030273 2144.0 
240.035095 408.0 
241.032257 516.0 
243.117065 388.0 
249.044846 384.0 
251.065002 280.0 
272.127502 444.0 
277.082764 2972.0 
278.086792 620.0 
278.735687 276.0 
280.052582 312.0 
280.625519 276.0 
281.131714 2928.0 
282.131073 876.0 
283.124939 356.0 
290.075989 804.0 
295.064331 288.0 
296.031311 456.0 
299.141113 3352.0 
300.144714 572.0 
301.145081 440.0 
304.091797 632.0 
306.122467 276.0 
307.826996 316.0 
309.111786 1388.0 
310.111206 316.0 
310.678406 288.0 
319.119537 276.0 
324.028839 736.0 
337.077881 660.0 
338.040253 1116.0 
341.0672 464.0 
353.135284 1208.0 
355.161926 432.0 
359.160278 8644.0 
360.164825 1320.0 
361.154358 992.0 
362.15979 648.0 
369.050537 400.0 
371.143188 2440.0 
372.151703 840.0 
373.159393 372.0 
375.132782 520.0 
376.097565 1080.0 
377.099335 320.0 
377.171478 9692.0 
377.250366 308.0 
378.175049 1728.0 
379.172119 1324.0 
383.067749 2368.0 
384.070099 352.0 
385.059204 368.0 
386.169281 776.0 
387.248383 372.0 
389.16214 392.0 
390.166718 300.0 
391.187286 2576.0 
392.191162 948.0 
404.177643 516.0 
405.181244 300.0 
407.151062 568.0 
408.124603 396.0 
409.088623 336.0 
409.19696 11056.0 
410.197113 2512.0 
411.196472 812.0 
412.193573 548.0 
413.202728 420.0 
415.237213 396.0 
421.117096 1488.0 
422.120056 596.0 
422.195984 1388.0 
423.118866 480.0 
423.204346 320.0 
425.113892 496.0 
430.192383 352.0 
436.21048 280.0 
439.123505 356.0 
447.188385 500.0 
453.145172 1264.0 
454.13385 504.0 
455.140961 308.0 
457.209869 548.0 
458.174194 2108.0 
459.176422 500.0 
459.208557 292.0 
460.171173 636.0 
475.215607 1048.0 
476.188324 1472.0 
477.148651 748.0 
477.185791 608.0 
478.181549 284.0 
479.214233 336.0 
480.151886 400.0 
481.136444 760.0 
483.13797 288.0 
485.232544 512.0 
486.252197 424.0 
487.238434 488.0 
489.23819 328.0 
490.200775 668.0 
491.200867 500.0 
492.200226 336.0 
493.172577 1264.0 
495.158234 376.0 
496.248077 400.0 
496.577057 324.0 
503.196106 4692.0 
504.194336 1600.0 
505.18988 624.0 
506.134857 480.0 
507.244202 1312.0 
508.212646 3408.0 
509.214752 1652.0 
510.210999 912.0 
511.213379 312.0 
514.254578 1856.0 
515.259766 368.0 
519.188721 1328.0 
520.16217 340.0 
521.205505 4772.0 
522.208862 1992.0 
523.155396 696.0 
523.206909 844.0 
524.208008 336.0 
529.22583 296.0 
530.220764 308.0 
531.22644 1836.0 
532.229553 516.0 
532.262268 468.0 
533.237366 340.0 
535.221558 2672.0 
536.221436 1020.0 
537.166138 3320.0 
537.213806 712.0 
538.165833 892.0 
538.214539 304.0 
539.164307 360.0 
541.153442 376.0 
541.243347 356.0 
546.290344 748.0 
547.233521 288.0 
551.220581 332.0 
552.221558 344.0 
553.231384 8888.0 
554.234192 2288.0 
555.175781 804.0 
555.230652 1672.0 
555.280334 676.0 
556.228455 736.0 
556.282166 276.0 
557.212646 592.0 
558.206787 288.0 
558.259399 304.0 
559.205627 428.0 
561.253784 404.0 
563.182312 604.0 
563.25177 1424.0 
565.246277 292.0 
566.192383 300.0 
567.309509 464.0 
575.215942 3560.0 
576.220032 1176.0 
577.215027 932.0 
579.217224 392.0 
579.267578 304.0 
581.202209 292.0 
585.32843 272.0 
586.261475 592.0 
587.265869 348.0 
588.220154 312.0 
589.230103 656.0 
590.234253 316.0 
593.226685 892.0 
594.234558 596.0 
595.210632 780.0 
599.345642 272.0 
600.343445 532.0 
601.270081 956.0 
602.282654 652.0 
603.268799 588.0 
604.276917 540.0 
605.319214 340.0 
606.321777 452.0 
607.24469 3000.0 
608.246277 384.0 
609.238708 548.0 
611.302063 356.0 
613.305237 3716.0 
614.306885 1048.0 
615.308228 488.0 
616.320862 320.0 
617.301331 320.0 
617.35144 1760.0 
618.354919 296.0 
619.279541 1844.0 
619.349792 760.0 
620.279785 360.0 
624.318176 296.0 
624.520813 300.0 
625.249817 352.0 
626.253113 532.0 
627.244751 304.0 
629.306763 640.0 
631.314819 1792.0 
632.318481 576.0 
633.30304 688.0 
634.299805 532.0 
635.298157 636.0 
636.299255 292.0 
637.214417 288.0 
639.282898 1352.0 
640.28302 676.0 
641.282593 500.0 
643.336792 384.0 
645.330688 2044.0 
646.333984 1528.0 
647.325623 1264.0 
648.336731 392.0 
649.326111 336.0 
651.30896 2760.0 
652.307739 1588.0 
653.302185 852.0 
657.297119 7016.0 
658.295715 2504.0 
659.295288 1036.0 
660.295532 288.0 
661.341003 1028.0 
662.341553 456.0 
663.341003 4396.0 
664.341431 1804.0 
665.342224 2364.0 
669.247742 480.0 
670.300476 280.0 
671.3078 1144.0 
672.313843 812.0 
673.300903 460.0 
675.305847 3604.0 
676.228394 284.0 
676.308044 1872.0 
677.303345 1316.0 
678.310486 360.0 
679.352966 688.0 
680.726562 472.0 
681.349426 344.0 
682.378235 352.0 
688.301514 888.0 
688.414917 272.0 
689.320312 7816.0 
690.322083 2276.0 
691.323547 1096.0 
692.278625 404.0 
692.327148 696.0 
693.314758 1200.0 
694.317993 516.0 
695.301331 436.0 
695.316284 360.0 
707.33313 9376.0 
708.334412 4512.0 
709.333496 1708.0 
710.330627 752.0 
711.331665 500.0 
720.248596 480.0 
724.223999 292.0 
724.301086 1836.0 
725.341492 2328.0 
726.343811 1036.0 
727.341614 772.0 
728.281799 352.0 
728.336975 388.0 
734.273499 312.0 
738.261597 1624.0 
739.265808 1324.0 
740.269043 944.0 
741.281616 516.0 
743.363892 356.0 
744.344849 448.0 
746.344177 452.0 
747.344971 508.0 
748.356567 320.0 
752.284058 1300.0 
753.292664 940.0 
754.283203 376.0 
755.265259 360.0 
756.268372 328.0 
761.401489 280.0 
762.349182 2060.0 
763.350952 1160.0 
764.348694 316.0 
768.314209 540.0 
770.29248 10028.0 
771.293091 4364.0 
772.289246 2696.0 
773.289307 688.0 
774.289734 292.0 
774.35376 280.0 
778.369568 276.0 
779.295166 548.0 
779.371826 292.0 
782.426453 616.0 
786.356384 292.0 
789.37262 1008.0 
790.339661 2312.0 
791.328979 1440.0 
792.33075 480.0 
792.533386 284.0 
794.308594 292.0 
794.381592 844.0 
795.385742 296.0 
796.308105 860.0 
797.319702 320.0 
798.30896 372.0 
799.306396 280.0 
800.338806 272.0 
803.391235 272.0 
807.387207 484.0 
808.343689 14172.0 
809.346619 5584.0 
810.344482 3240.0 
811.344971 1208.0 
811.434631 272.0 
812.340759 776.0 
814.456604 324.0 
819.679749 344.0 
821.407166 692.0 
822.355225 828.0 
822.411133 664.0 
823.372131 716.0 
824.340454 368.0 
825.356445 292.0 
826.411133 732.0 
828.3479 788.0 
828.423035 1260.0 
829.336182 272.0 
829.421143 452.0 
830.415344 428.0 
832.470581 512.0 
838.3479 400.0 
839.411804 852.0 
840.370789 5396.0 
841.374817 2228.0 
841.686707 296.0 
842.372925 1636.0 
843.371338 572.0 
844.429688 2304.0 
845.43866 1048.0 
846.411072 1120.0 
847.431885 708.0 
848.440063 296.0 
849.417664 300.0 
850.429871 400.0 
854.390625 664.0 
856.394287 288.0 
857.390686 400.0 
858.465515 464.0 
859.448669 356.0 
860.443848 1404.0 
861.445374 352.0 
862.440613 1728.0 
863.438171 600.0 
864.422424 924.0 
866.443298 480.0 
868.40094 284.0 
872.407288 2976.0 
873.412476 2036.0 
874.407959 900.0 
875.414124 348.0 
876.457764 3696.0 
877.45929 1436.0 
878.454224 1780.0 
879.443787 1080.0 
880.46283 540.0 
881.431458 292.0 
886.421692 692.0 
890.421631 17872.0 
891.424316 9428.0 
892.420959 4012.0 
893.419495 2100.0 
894.469849 9028.0 
895.473572 3700.0 
896.46637 1968.0 
896.685059 336.0 
897.472656 1000.0 
898.443115 284.0 
898.48468 472.0 
904.43396 3604.0 
904.729004 272.0 
905.442078 1824.0 
906.43634 1260.0 
907.439941 272.0 
908.43158 9144.0 
908.526123 392.0 
908.783386 336.0 
909.429688 5116.0 
909.90332 280.0 
910.435852 2368.0 
911.443787 568.0 
912.459595 604.0 
922.282593 292.0 
922.447937 23924.0 
922.817383 284.0 
923.452515 11100.0 
924.451355 6572.0 
925.447327 2552.0 
926.285278 304.0 
926.441467 788.0 
927.639526 272.0 
931.784973 304.0 
932.520386 296.0 
934.895142 352.0 
935.25177 284.0 
936.305847 332.0 
937.987671 300.0 
938.446045 680.0 
938.703186 312.0 
939.098633 292.0 
939.148315 292.0 
939.442444 280.0 
939.519287 552.0 
939.654663 292.0 
939.731934 396.0 
939.777344 320.0 
939.96106 368.0 
940.058472 476.0 
940.108093 412.0 
940.222656 832.0 
940.461243 253968.0 
940.610535 708.0 
940.680725 548.0 
940.788391 276.0 
940.859985 660.0 
940.912292 656.0 
941.005981 772.0 
941.067627 424.0 
941.087341 396.0 
941.17865 416.0 
941.198364 396.0 
941.262024 452.0 
941.307739 728.0 
941.463318 164044.0 
941.659912 448.0 
941.763306 476.0 
941.867859 304.0 
941.942017 412.0 
942.049622 368.0 
942.141907 624.0 
942.338074 344.0 
942.460815 76716.0 
942.651062 468.0 
942.917847 304.0 
943.060059 504.0 
943.102295 380.0 
943.318359 340.0 
943.46167 23152.0 
943.642822 280.0 
943.990417 832.0 
944.073914 280.0 
944.460388 7708.0 
944.648621 284.0 
944.997192 404.0 
945.461975 1520.0 
945.837341 460.0 
946.013062 296.0 
946.19873 452.0 
946.434937 376.0 
946.454834 324.0 
946.524841 340.0 
946.802734 368.0 
947.041016 280.0 
947.248352 292.0 
947.696289 360.0 
END IONS

