BEGIN IONS
PEPMASS=587.0
CHARGE=0+
MSLEVEL=2
SOURCE_INSTRUMENT=LC-ESI-qTof
FILENAME=20130107_Jenia_Ger_Jamaicamide_A_MNa587-qb.1.1..mgf
SEQ=*..*
IONMODE=Positive
ORGANISM=GNPS-LIBRARY
NAME=Jamaicamide_A M+Na
PI=Gerwick
DATACOLLECTOR=Jenia
SMILES=C[C@H]1C=CC(=O)N1C(=O)/C=C(\CCNC(=O)CC/C=C/C(C)CC/C(=C/Cl)/CCCC#CBr)/OC
INCHI=InChI=1S/C27H36BrClN2O4/c1-21(12-14-23(20-29)10-5-4-8-17-28)9-6-7-11-25(32)30-18-16-24(35-3)19-27(34)31-22(2)13-15-26(31)33/h6,9,13,15,19-22H,4-5,7,10-12,14,16,18H2,1-3H3,(H,30,32)/b9-6+,23-20+,24-19+/t21?,22-/m0/s1
INCHIAUX=N/A
PUBMED=N/A
SUBMITUSER=mwang87
LIBRARYQUALITY=1
SPECTRUMID=CCMSLIB00000001707
SCANS=1
184.800903 45675.0 
198.684326 42557.0 
209.036987 194675.0 
220.146393 33459.0 
223.898651 147702.0 
225.295258 153050.0 
226.103302 139332.0 
227.569702 146429.0 
229.079803 125892.0 
235.106689 237373.0 
237.244629 336860.0 
248.207703 8673.0 
249.284576 149176.0 
251.057037 230398.0 
252.095795 186904.0 
253.046082 214100.0 
253.68515 18.0 
255.440186 156784.0 
256.086914 549159.0 
258.047119 132040.0 
263.040161 88215.0 
264.15686 86083.0 
265.045166 552447.0 
265.763428 405194.0 
266.972961 260793.0 
267.866638 2.0 
268.989624 125384.0 
276.369507 62385.0 
284.377441 216194.0 
287.727051 741309.0 
290.858887 81147.0 
295.929688 220457.0 
298.432617 88227.0 
301.340881 338910.0 
301.99884 70675.0 
303.015259 105241.0 
303.770447 253426.0 
304.628418 601314.0 
305.335693 231242.0 
306.756226 223049.0 
312.690979 323208.0 
320.061523 140919.0 
321.047974 95121.0 
323.032471 94893.0 
324.363708 173805.0 
326.370117 265911.0 
327.028015 130977.0 
333.815308 246754.0 
335.379211 181137.0 
338.347961 212759.0 
338.983032 108263.0 
341.551636 174990.0 
344.021973 956098.0 
345.147461 534252.0 
346.562622 238581.0 
347.864075 434423.0 
349.006958 69954.0 
351.295044 63207.0 
357.595459 266556.0 
363.137695 94928.0 
365.265747 102660.0 
368.555298 86423.0 
379.928894 178486.0 
383.438721 30121.0 
385.125061 58834.0 
388.489502 521836.0 
393.260925 54458.0 
395.647461 136984.0 
396.612183 212324.0 
397.386292 444672.0 
406.753174 1043254.0 
407.526489 2160363.0 
408.287903 84487.0 
409.059998 54091.0 
410.787659 118448.0 
413.346802 216195.0 
415.963318 378840.0 
417.021729 491285.0 
418.562256 84938.0 
419.464294 78886.0 
424.590271 295096.0 
431.124634 412337.0 
432.757202 234117.0 
433.502502 149443.0 
435.354309 11827.0 
436.595276 413314.0 
437.266663 1.0 
438.498596 92499.0 
458.073975 69921.0 
467.978516 187858.0 
469.056213 256531.0 
470.218628 427132.0 
471.21106 249334.0 
473.461548 25357.0 
476.429871 63536.0 
480.764832 69797.0 
487.571655 106020.0 
489.35321 408627.0 
490.133301 2.0 
493.103027 177421.0 
500.328064 166673.0 
507.032654 304588.0 
508.203552 765011.0 
509.096985 46079.0 
509.85498 195015.0 
513.547363 158869.0 
516.127808 126853.0 
517.590698 82282.0 
519.620239 258047.0 
520.451294 190933.0 
522.953369 69689.0 
525.459229 69891.0 
526.838135 247084.0 
528.389404 737882.0 
529.257324 1008599.0 
530.00708 602.0 
531.003662 51346.0 
532.778076 177068.0 
533.398682 40191.0 
538.624023 2292710.0 
539.599976 1.0 
544.400146 54792.0 
546.405029 529381.0 
547.060303 123523.0 
547.976318 490393.0 
548.755493 3.0 
550.346436 163411.0 
551.088867 9.0 
558.94751 59815.0 
562.252686 528286.0 
562.93335 1.0 
567.94458 273759.0 
569.258545 652295.0 
570.41333 57674.0 
571.286133 53137.0 
572.316895 55723.0 
574.081055 76734.0 
581.905762 262179.0 
END IONS

