BEGIN IONS
PEPMASS=307.77
CHARGE=1+
MSLEVEL=2
SOURCE_INSTRUMENT=LC-ESI-Ion Trap
FILENAME=f.arihiro1013/purecompounds_3rdconversion/201909_hoshinolactam.mzXML;
SEQ=*..*
IONMODE=Positive
ORGANISM=GNPS-LIBRARY
NAME=Hoshinolactam M+H
PI=Gerwick
DATACOLLECTOR=Arihiro Iwasaki
SMILES=CCC[C@@H]1[C@@H](/C=C/C(O[C@@H]2[C@@H](C)C(N[C@H]2CC(C)C)=O)=O)C1
INCHI=InChI=1S/C18H29NO3/c1-5-6-13-10-14(13)7-8-16(20)22-17-12(4)18(21)19-15(17)9-11(2)3/h7-8,11-15,17H,5-6,9-10H2,1-4H3,(H,19,21)/b8-7+/t12-,13+,14+,15+,17-/m1/s1
INCHIAUX=
PUBMED=28145721
SUBMITUSER=arihiro1013
LIBRARYQUALITY=3
SPECTRUMID=CCMSLIB00004752995
SCANS=606
96.78537 1834.0 
112.088882 3092.0 
136.600098 3708.0 
137.289856 4948.0 
154.061066 951113.0 
154.836853 721.0 
175.495056 4708.0 
185.050812 324.0 
192.238007 6689.0 
193.301636 2510.0 
194.219788 9410.0 
248.995148 792.0 
289.77478 4002.0 
308.104614 1914.0 
END IONS

