BEGIN IONS
PEPMASS=834.4
CHARGE=1+
MSLEVEL=2
SOURCE_INSTRUMENT=LC-ESI-qTof
FILENAME=f.evgenia_glukhov/Collection Extracts/#1396E.mzXML;
SEQ=*..*
IONMODE=Positive
ORGANISM=GNPS-LIBRARY
NAME=Aurilide B M+H
PI=Gerwick
DATACOLLECTOR=Jenia
SMILES=C/C(=C\CC)C1OC(=O)C(C)[N@](C)C(=O)[C@@H](NC(=O)CN(C)C(=O)C([C@H](C)CC)[N@](C)C(=O)[C@@H](NC(=O)[C@H](OC(=O)C(\C)=C\C[C@H](O)[C@@H]1C)[C@@H](C)CC)C(C)C)C(C)C
INCHI=
INCHIAUX=
PUBMED=
SUBMITUSER=evgenia_glukhov
LIBRARYQUALITY=3
SPECTRUMID=CCMSLIB00000478602
SCANS=787
297.787964 1255.0 
323.863525 1874.0 
401.112305 8747.0 
450.988892 2124.0 
561.092529 8447.0 
620.993896 1539.0 
632.324707 1578.0 
639.301758 790.0 
716.348633 1531.0 
717.190308 854.0 
731.321411 2820.0 
735.602783 1148.0 
806.549194 1175.0 
816.424805 2608.0 
834.746216 1566.0 
END IONS

