BEGIN IONS
PEPMASS=834.3
CHARGE=0+
MSLEVEL=2
SOURCE_INSTRUMENT=LC-ESI-qTof
FILENAME=20130610_Ger_Jenia_Majusculamide_D_MNa834.3-qb.1.1..mgf
SEQ=*..*
IONMODE=Positive
ORGANISM=GNPS-LIBRARY
NAME=Majusculamide D M+Na
PI=Gerwick
DATACOLLECTOR=Jenia
SMILES=CCCCC(C)CC(C)C(=O)N(C)C(CC1=CC=C(C=C1)OC)C(=O)NC(=O)C(C(C)OC(=O)C)N(C)C(C(C)C)C(=O)N2CC(CC2C(=O)N3C(C=CC3=O)C)O
INCHI=InChI=1S/C43H65N5O10/c1-12-13-14-26(4)21-27(5)41(54)45(9)34(22-31-16-18-33(57-11)19-17-31)39(52)44-40(53)38(29(7)58-30(8)49)46(10)37(25(2)3)43(56)47-24-32(50)23-35(47)42(55)48-28(6)15-20-36(48)51/h15-20,25-29,32,34-35,37-38,50H,12-14,21-24H2,1-11H3,(H,44,52,53)
INCHIAUX=N/A
PUBMED=N/A
SUBMITUSER=mwang87
LIBRARYQUALITY=1
SPECTRUMID=CCMSLIB00000001798
SCANS=1
289.511383 357759.0 
305.335815 209.0 
318.442627 34608.0 
319.083496 269653.0 
324.296814 2463.0 
332.119568 95793.0 
333.234741 110573.0 
337.720581 63835.0 
342.40979 219802.0 
346.201752 1659481.0 
347.273865 4126.0 
359.283203 12883.0 
360.059875 4547.0 
361.135498 519429.0 
366.802612 25355.0 
367.832031 12318.0 
368.673218 83.0 
377.676147 63287.0 
381.158691 423201.0 
385.169983 414882.0 
385.776672 9596.0 
386.695343 1095253.0 
389.214294 4656.0 
392.110809 318992.0 
392.705017 69.0 
393.490723 129185.0 
394.414429 6630.0 
401.060425 109167.0 
406.955444 209038.0 
411.25531 133084.0 
411.78717 70523.0 
423.601929 1042.0 
428.539001 107817.0 
429.255493 2583721.0 
429.937134 39.0 
430.463501 10588.0 
439.431305 731203.0 
439.96521 9638.0 
451.178528 735733.0 
452.167419 251794.0 
459.993042 90175.0 
462.718872 29102.0 
464.216278 75657.0 
482.298157 185141.0 
483.199585 579278.0 
484.253845 15073.0 
487.479126 10633.0 
489.334503 2621234.0 
490.15564 168989.0 
491.74231 31769.0 
499.101196 738503.0 
500.062317 123993.0 
508.218994 7370.0 
511.064667 4520356.0 
512.227966 741374.0 
514.229797 886620.0 
515.287354 391622.0 
520.397461 336425.0 
521.167236 37106.0 
523.388916 57493.0 
527.357178 14768.0 
528.782593 217162.0 
537.141846 25260.0 
542.11731 2840441.0 
543.136658 342469.0 
543.761963 229.0 
546.900146 3273.0 
548.442139 199099.0 
564.144287 145443.0 
565.242249 147533.0 
574.198242 417325.0 
587.096191 51301.0 
589.393311 347443.0 
593.355469 57909.0 
606.36084 2694.0 
624.379883 949792.0 
633.358643 337935.0 
638.206299 66853.0 
642.246338 12002.0 
649.155029 449471.0 
656.905029 15736.0 
663.721252 88731.0 
664.377625 7179.0 
676.753296 987439.0 
677.36322 28232328.0 
678.411072 5827618.0 
679.126404 366.0 
691.477539 10301.0 
693.489502 458640.0 
695.396973 45929.0 
698.294373 72576.0 
698.909424 3.0 
705.566284 10246.0 
709.36676 957875.0 
710.444336 422737.0 
711.102417 419650.0 
721.658203 3440.0 
730.283997 427405.0 
731.19397 110100.0 
731.819824 13091.0 
736.438782 221009.0 
737.352295 228700096.0 
738.389221 53166056.0 
739.052185 590.0 
754.121582 11882.0 
756.452637 221514.0 
758.583862 29746.0 
760.158813 7214.0 
760.706055 9434.0 
761.332397 31602.0 
773.587402 974155.0 
774.384521 102830736.0 
775.414734 32363856.0 
776.328796 632854.0 
777.068176 20.0 
779.666382 329802.0 
790.325684 150848.0 
791.679749 330569.0 
802.259155 1633.0 
817.296875 458104.0 
833.453979 233545.0 
834.25708 1295093.0 
END IONS

