BEGIN IONS
PEPMASS=867.25
CHARGE=1+
MSLEVEL=2
SOURCE_INSTRUMENT=LC-ESI-Ion Trap
FILENAME=Ferintoic acidA_MSMS.mzXML
SEQ=*..*
IONMODE=Positive
ORGANISM=GNPS-LIBRARY
NAME=Ferintoic acid A M+H
PI=Gerwick
DATACOLLECTOR=E Briand
SMILES=CC(C)[C@@H]1NC(=O)[C@@H](CCCCNC(=O)[C@H](CC2=CC=CC=C2)NC(=O)[C@H](C)N(C)C(=O)[C@H](CCC2=CC=C(O)C=C2)NC1=O)NC(=O)NC(CC1=CNC2=C1C=CC=C2)C(O)=O
INCHI=InChI=1S/C46H58N8O9/c1-27(2)39-43(59)49-36(22-19-29-17-20-32(55)21-18-29)44(60)54(4)28(3)40(56)50-37(24-30-12-6-5-7-13-30)41(57)47-23-11-10-16-35(42(58)53-39)51-46(63)52-38(45(61)62)25-31-26-48-34-15-9-8-14-33(31)34/h5-9,12-15,17-18,20-21,26-28,35-39,48,55H,10-11,16,19,22-25H2,1-4H3,(H,47,57)(H,49,59)(H,50,56)(H,53,58)(H,61,62)(H2,51,52,63)/t28-,35+,36-,37-,38?,39-/m0/s1
INCHIAUX=ZATXZWLJJMKQDB-AOWMEVDFSA-N
PUBMED=N/A
SUBMITUSER=ebriand
LIBRARYQUALITY=3
SPECTRUMID=CCMSLIB00000071761
SCANS=459
256.17688 5795.0 
257.770508 5302.0 
261.02771 5858.0 
263.096313 11308.0 
264.190125 4070.0 
271.85498 16334.0 
283.55603 4100.0 
285.911255 9876.0 
294.035278 7305.0 
311.903931 8082.0 
312.815308 3299.0 
314.859375 54080.0 
315.974487 9292.0 
318.174744 3313.0 
320.236694 3752.0 
327.354126 3539.0 
328.86377 10935.0 
330.066406 2354.0 
332.110962 12154.0 
334.024963 4217.0 
336.721558 2737.0 
341.415283 4076.0 
343.838257 4116.0 
360.885803 6534.0 
362.078491 50582.0 
364.909912 9162.0 
370.975403 48584.0 
373.272339 8011.0 
373.881104 15731.0 
379.036011 111080.0 
379.666626 1.0 
383.054443 1409.0 
387.035583 30011.0 
387.733276 1.0 
389.916138 6544.0 
400.120605 5498.0 
403.274902 14936.0 
404.995667 108586.0 
410.976807 7628.0 
411.802063 1976.0 
413.665039 6979.0 
414.289429 2444.0 
418.064697 14199.0 
419.005005 8803.0 
422.213257 13102.0 
422.866638 5.0 
423.858643 4186.0 
430.880371 25618.0 
433.293335 2242.0 
440.241699 6387.0 
440.880371 4346.0 
442.309448 7442.0 
442.955505 3.0 
449.15625 5934.0 
456.153381 13220.0 
458.472534 2248.0 
460.00061 35545.0 
461.87207 233180.0 
470.171326 3818.0 
480.970825 4414.0 
486.161804 64192.0 
488.137634 17442.0 
490.468018 3216.0 
496.094543 3821.0 
498.27301 3030.0 
499.378113 8966.0 
503.110962 88947.0 
504.274658 7276.0 
506.317139 5153.0 
509.145264 21714.0 
511.235596 5678.0 
516.20105 13368.0 
520.125 36243.0 
520.800049 1.0 
529.21875 8973.0 
534.314453 11812.0 
535.105713 5954.0 
537.219971 7401.0 
538.277344 5681.0 
545.15332 49810.0 
545.866699 1.0 
547.998291 78279.0 
550.149536 23619.0 
552.29248 7073.0 
556.051392 2886.0 
559.167725 8052.0 
560.407593 11025.0 
561.115967 20622.0 
563.140503 59293.0 
564.334717 3311.0 
570.037598 2750.0 
571.532471 2510.0 
572.396729 4505.0 
573.089966 436323.0 
574.08728 77883.0 
577.116699 6256.0 
577.7948 20551.0 
578.402588 6309.0 
581.614258 8320.0 
587.010498 49286.0 
591.027832 158605.0 
592.003174 5967.0 
596.198486 57228.0 
596.855469 6.0 
604.773682 18207.0 
605.918213 29243.0 
607.056641 14780.0 
609.196289 15900.0 
614.081787 7166.0 
617.19873 17350.0 
618.421143 44847.0 
619.186523 92656.0 
619.964355 9875.0 
625.751465 3700.0 
631.378418 5977.0 
635.207764 520655.0 
636.212524 7469.0 
637.171875 1787524.0 
638.224976 21426.0 
639.228027 7774.0 
644.087769 36957.0 
645.247803 91804.0 
645.866699 2.0 
650.32373 2953.0 
653.160645 2929.0 
654.831055 4723.0 
662.379272 23208.0 
663.127441 1326352.0 
664.0 4.0 
672.135498 290725.0 
673.23877 11278.0 
676.949829 2282.0 
679.488281 3450.0 
680.095215 2951.0 
681.159424 92084.0 
682.385254 1809.0 
689.5 44925.0 
690.167236 399346.0 
690.93335 1.0 
693.235474 2453.0 
695.147217 53374.0 
695.758301 631.0 
701.368652 14884.0 
702.296631 2855.0 
704.089355 21938.0 
708.065918 3511.0 
720.323486 3870.0 
722.405029 7475.0 
723.248413 32206.0 
733.312256 7499.0 
736.347412 4243.0 
737.963501 16619.0 
750.16272 11332.0 
760.884888 6782.0 
764.07019 50628.0 
766.01123 7157.0 
768.072266 28323.0 
768.799927 2.0 
782.0979 25109.0 
783.368408 5678.0 
786.879395 4278.0 
796.169434 10932.0 
804.253052 6210.0 
805.191772 6897.0 
809.840576 4675.0 
820.520264 2187.0 
821.19397 175210.0 
822.250366 27287.0 
823.124268 3567.0 
827.998413 2914.0 
831.22583 24570.0 
832.327271 2314.0 
839.1427 492124.0 
840.173584 6089.0 
849.109985 839669.0 
850.124268 18459.0 
END IONS

