BEGIN IONS
PEPMASS=754.62
CHARGE=1+
MSLEVEL=2
SOURCE_INSTRUMENT=LC-ESI-Ion Trap
FILENAME=f.evgenia_glukhov/Microcolins/MB-754.mzXML;
SEQ=*..*
IONMODE=Positive
ORGANISM=GNPS-LIBRARY
NAME=Microcolin B M+Na
PI=Gerwick
DATACOLLECTOR=HaoBing Yu
SMILES=CN(C([C@H](C)C[C@H](C)CCCC)=O)[C@@H](CC(C)C)C(N[C@@H]([C@@H](C)OC(C)=O)C(N(C)[C@@H](C(C)C)C(N1[C@H](C(N2C(C=C[C@@H]2C)=O)=O)CCC1)=O)=O)=O
INCHI=
INCHIAUX=
PUBMED=1517734
SUBMITUSER=evgenia_glukhov
LIBRARYQUALITY=3
SPECTRUMID=CCMSLIB00005435622
SCANS=629
216.753998 286440.0 
232.960419 791295.0 
281.310181 153137.0 
282.225708 267215.0 
282.916748 622807.0 
286.803101 248665.0 
330.005737 1656540.0 
331.293213 222593.0 
337.314331 313869.0 
337.919312 15.0 
358.064575 402993.0 
365.064575 1425437.0 
371.104736 432487.0 
387.422729 228252.0 
395.16748 747936.0 
395.802856 45.0 
405.637207 357928.0 
413.200867 712201.0 
414.489502 338684.0 
419.201965 505885.0 
420.12146 8.0 
421.871948 579666.0 
424.232483 249117.0 
427.720459 257027.0 
440.724121 260017.0 
446.992065 1877431.0 
447.691772 116.0 
450.091492 1313257.0 
450.720398 376603.0 
465.378418 498907.0 
469.544739 188101.0 
473.015381 763975.0 
474.038147 196712.0 
478.304199 1034450.0 
479.360535 165089.0 
483.192322 55968.0 
484.275208 872839.0 
500.328369 631830.0 
501.086121 129565.0 
525.041016 158119.0 
549.381226 552569.0 
569.431274 480041.0 
570.761108 265243.0 
629.667969 629884.0 
630.337646 362013.0 
656.078979 271586.0 
657.286133 1161383.0 
676.280273 171594.0 
677.543701 656390.0 
680.322266 105256.0 
693.586426 369079.0 
694.503296 165793792.0 
695.549072 23312704.0 
696.702148 4.0 
711.696411 455526.0 
754.376099 6112660.0 
755.570312 3532587.0 
756.214111 102.0 
END IONS

