BEGIN IONS
PEPMASS=963.04
CHARGE=1+
MSLEVEL=2
SOURCE_INSTRUMENT=LC-ESI-Ion Trap
FILENAME=f.arihiro1013/purecompounds_2ndconversion/201909_maedamide (2)..mzXML;
SEQ=*..*
IONMODE=Positive
ORGANISM=GNPS-LIBRARY
NAME=Maedamide M+H
PI=Gerwick
DATACOLLECTOR=Arihiro Iwasaki
SMILES=O[C@@H](CC(N[C@]([C@@H](C)CC)([H])C(NCC(N(C)[C@H](CC1=CC=CC=C1)C(N2[C@H](C(OC)=O)CCC2)=O)=O)=O)=O)[C@@H](NC([C@H]3N(C([C@@](OC([C@@H](O)C(C)C)=O)([H])[C@@H](C)CC)=O)CCC3)=O)CC4=CC=CC=C4
INCHI=InChI=1S/C51H74N6O12/c1-9-32(5)43(47(63)52-30-42(60)55(7)39(28-35-21-15-12-16-22-35)48(64)57-26-18-24-38(57)50(66)68-8)54-41(59)29-40(58)36(27-34-19-13-11-14-20-34)53-46(62)37-23-17-25-56(37)49(65)45(33(6)10-2)69-51(67)44(61)31(3)4/h11-16,19-22,31-33,36-40,43-45,58,61H,9-10,17-18,23-30H2,1-8H3,(H,52,63)(H,53,62)(H,54,59)/t32-,33-,36-,37-,38-,39+,40-,43-,44-,45+/m0/s1
INCHIAUX=
PUBMED=
SUBMITUSER=arihiro1013
LIBRARYQUALITY=3
SPECTRUMID=CCMSLIB00004722212
SCANS=597
945.637939 2132.0 
963.756348 3166.0 
END IONS

