BEGIN IONS
PEPMASS=948.2
CHARGE=0+
MSLEVEL=2
SOURCE_INSTRUMENT=LC-ESI-qTof
FILENAME=20130221_Jenia_Ger_Hoiamide_A_MNa948.2-qb.1.1..mgf
SEQ=*..*
IONMODE=Positive
ORGANISM=GNPS-LIBRARY
NAME=Hoiamide_A M+Na
PI=Gerwick
DATACOLLECTOR=Jenia
SMILES=CCC[C@@H](C)[C@@H]([C@H](C)[C@@H]1[C@H]([C@H](CC2=NC(=CS2)C3=N[C@](CS3)(C4=N[C@](CS4)(C(=O)N[C@H]([C@H]([C@H](C(=O)O[C@H](C(=O)N[C@H](C(=O)O1)[C@@H](C)O)C(C)C)C)O)[C@@H](C)CC)C)C)OC)C)O
INCHI=InChI=1S/C44H71N5O10S3/c1-14-16-23(6)33(51)25(8)36-24(7)29(57-13)17-30-45-28(18-60-30)38-48-44(12,20-61-38)42-49-43(11,19-62-42)41(56)47-31(22(5)15-2)34(52)26(9)39(54)58-35(21(3)4)37(53)46-32(27(10)50)40(55)59-36/h18,21-27,29,31-36,50-52H,14-17,19-20H2,1-13H3,(H,46,53)(H,47,56)/t22-,23+,24-,25-,26+,27+,29-,31-,32-,33-,34-,35-,36-,43+,44+/m0/s1
INCHIAUX=N/A
PUBMED=N/A
SUBMITUSER=mwang87
LIBRARYQUALITY=1
SPECTRUMID=CCMSLIB00000001730
SCANS=1
345.919189 9987.0 
406.041077 7335.0 
429.122803 232327.0 
471.151245 3900.0 
485.819092 172277.0 
502.949005 239948.0 
512.997559 62251.0 
514.074463 94240.0 
515.183105 56621.0 
518.203369 350323.0 
526.990234 50577.0 
530.562866 212515.0 
531.822815 480689.0 
533.097168 24558.0 
539.237793 15872.0 
541.260254 22678.0 
543.871704 78441.0 
558.963379 60419.0 
559.584106 203332.0 
564.438232 93888.0 
572.83783 105250.0 
573.708984 200122.0 
574.88623 23253.0 
576.128113 534600.0 
577.016479 226707.0 
590.076416 289975.0 
612.983154 28248.0 
615.157471 75838.0 
617.161255 320176.0 
618.004883 45979.0 
620.712708 101293.0 
623.203369 116678.0 
627.228882 404289.0 
631.25293 163226.0 
635.084412 62194.0 
641.316895 291504.0 
642.59729 310054.0 
647.505859 393783.0 
648.27655 80922.0 
653.279785 68029.0 
655.00177 114813.0 
656.366455 117676.0 
658.9729 786680.0 
659.881775 456788.0 
660.54126 210204.0 
671.292053 985996.0 
672.098877 686080.0 
673.146362 1840334.0 
674.23291 314296.0 
683.328308 712617.0 
683.967163 82526.0 
685.098145 115719.0 
686.275024 223153.0 
686.879883 1.0 
697.075806 154926.0 
698.374756 378150.0 
701.131592 623013.0 
701.807617 10.0 
714.391113 109270.0 
715.104004 727214.0 
716.264221 505832.0 
717.211426 347990.0 
727.85791 119116.0 
729.197388 796736.0 
730.256592 30126.0 
733.334473 1340896.0 
734.351196 1075679.0 
735.233276 1.0 
737.060181 3073.0 
738.237427 101373.0 
746.053955 980862.0 
747.196228 3134642.0 
748.236328 469331.0 
748.866272 544.0 
753.188477 97889.0 
755.156494 25860.0 
761.391113 402850.0 
766.35083 12267.0 
768.299805 58255.0 
774.006836 115706.0 
778.243713 376686.0 
778.938538 305394.0 
780.14978 514890.0 
781.275269 79142.0 
785.112915 153431.0 
786.286255 151768.0 
787.346802 451120.0 
788.075684 53630.0 
789.256348 28387.0 
790.865356 113216.0 
792.060486 765325.0 
792.756104 8.0 
796.89093 678532.0 
797.45813 346358.0 
798.248291 1209127.0 
799.456665 290038.0 
800.099976 1.0 
802.327515 22252.0 
804.417542 41357.0 
812.190552 759971.0 
812.95636 138.0 
814.810242 1231141.0 
816.078674 2826166.0 
817.227478 850092.0 
818.147095 236379.0 
818.808716 9.0 
827.106262 220100.0 
829.129639 705006.0 
829.651855 171516.0 
830.229187 1071142.0 
831.153442 789529.0 
831.990417 1.0 
835.357544 14270.0 
836.252808 1427744.0 
837.106201 489314.0 
840.304321 92980.0 
845.160522 349304.0 
845.896729 272006.0 
846.430908 880373.0 
847.21991 4597501.0 
848.221863 6504260.0 
849.187195 2661014.0 
850.143616 255524.0 
853.331482 1243693.0 
854.271118 1881027.0 
855.212952 923561.0 
856.24115 109414.0 
857.120483 52318.0 
858.324463 55825.0 
859.873901 103754.0 
861.005371 548037.0 
862.216858 1505083.0 
863.007507 383738.0 
867.123657 72654.0 
868.244019 2994508.0 
869.335754 806732.0 
870.102539 88487.0 
871.200745 174448.0 
872.331299 393445.0 
873.390259 25571.0 
874.130249 107390.0 
875.094482 666955.0 
877.345459 250526.0 
878.099976 1.0 
879.107056 78854.0 
880.276367 745176.0 
881.147461 611279.0 
885.290039 3037835.0 
886.302856 18534656.0 
887.309204 6300277.0 
888.173279 1.0 
891.922241 67416.0 
894.370117 69181.0 
895.52832 259926.0 
896.712524 669462.0 
898.164124 5970491.0 
899.219543 3625212.0 
900.209412 78904.0 
901.437744 207258.0 
902.187927 226063.0 
903.283325 1475973.0 
904.355408 1618105.0 
905.301758 1450592.0 
905.954651 608.0 
911.244507 63667.0 
912.349976 2568631.0 
913.274109 1282866.0 
915.518372 2158840.0 
916.281433 8784348.0 
917.335632 5248322.0 
918.205261 206772.0 
919.4375 18789.0 
929.215637 2855031.0 
930.230896 18486424.0 
931.27002 8124149.0 
931.927307 2236.0 
948.37146 74515.0 
END IONS

